# vtk DataFile Version 2.0 
FEM simulated result 
ASCII 
DATASET UNSTRUCTURED_GRID 
POINTS 726 float 
-100.0 -100.0 0.0 
-80.0 -100.0 0.0 
-60.0 -100.0 0.0 
-40.0 -100.0 0.0 
-20.0 -100.0 0.0 
0.0 -100.0 0.0 
20.0 -100.0 0.0 
40.0 -100.0 0.0 
60.0 -100.0 0.0 
80.0 -100.0 0.0 
100.0 -100.0 0.0 
-100.0 -80.0 0.0 
-80.0 -80.0 0.0 
-60.0 -80.0 0.0 
-40.0 -80.0 0.0 
-20.0 -80.0 0.0 
0.0 -80.0 0.0 
20.0 -80.0 0.0 
40.0 -80.0 0.0 
60.0 -80.0 0.0 
80.0 -80.0 0.0 
100.0 -80.0 0.0 
-100.0 -60.0 0.0 
-80.0 -60.0 0.0 
-60.0 -60.0 0.0 
-40.0 -60.0 0.0 
-20.0 -60.0 0.0 
0.0 -60.0 0.0 
20.0 -60.0 0.0 
40.0 -60.0 0.0 
60.0 -60.0 0.0 
80.0 -60.0 0.0 
100.0 -60.0 0.0 
-100.0 -40.0 0.0 
-80.0 -40.0 0.0 
-60.0 -40.0 0.0 
-40.0 -40.0 0.0 
-20.0 -40.0 0.0 
0.0 -40.0 0.0 
20.0 -40.0 0.0 
40.0 -40.0 0.0 
60.0 -40.0 0.0 
80.0 -40.0 0.0 
100.0 -40.0 0.0 
-100.0 -20.0 0.0 
-80.0 -20.0 0.0 
-60.0 -20.0 0.0 
-40.0 -20.0 0.0 
-20.0 -20.0 0.0 
0.0 -20.0 0.0 
20.0 -20.0 0.0 
40.0 -20.0 0.0 
60.0 -20.0 0.0 
80.0 -20.0 0.0 
100.0 -20.0 0.0 
-100.0 0.0 0.0 
-80.0 0.0 0.0 
-60.0 0.0 0.0 
-40.0 0.0 0.0 
-20.0 0.0 0.0 
0.0 0.0 0.0 
20.0 0.0 0.0 
40.0 0.0 0.0 
60.0 0.0 0.0 
80.0 0.0 0.0 
100.0 0.0 0.0 
-100.0 20.0 0.0 
-80.0 20.0 0.0 
-60.0 20.0 0.0 
-40.0 20.0 0.0 
-20.0 20.0 0.0 
0.0 20.0 0.0 
20.0 20.0 0.0 
40.0 20.0 0.0 
60.0 20.0 0.0 
80.0 20.0 0.0 
100.0 20.0 0.0 
-100.0 40.0 0.0 
-80.0 40.0 0.0 
-60.0 40.0 0.0 
-40.0 40.0 0.0 
-20.0 40.0 0.0 
0.0 40.0 0.0 
20.0 40.0 0.0 
40.0 40.0 0.0 
60.0 40.0 0.0 
80.0 40.0 0.0 
100.0 40.0 0.0 
-100.0 60.0 0.0 
-80.0 60.0 0.0 
-60.0 60.0 0.0 
-40.0 60.0 0.0 
-20.0 60.0 0.0 
0.0 60.0 0.0 
20.0 60.0 0.0 
40.0 60.0 0.0 
60.0 60.0 0.0 
80.0 60.0 0.0 
100.0 60.0 0.0 
-100.0 80.0 0.0 
-80.0 80.0 0.0 
-60.0 80.0 0.0 
-40.0 80.0 0.0 
-20.0 80.0 0.0 
0.0 80.0 0.0 
20.0 80.0 0.0 
40.0 80.0 0.0 
60.0 80.0 0.0 
80.0 80.0 0.0 
100.0 80.0 0.0 
-100.0 100.0 0.0 
-80.0 100.0 0.0 
-60.0 100.0 0.0 
-40.0 100.0 0.0 
-20.0 100.0 0.0 
0.0 100.0 0.0 
20.0 100.0 0.0 
40.0 100.0 0.0 
60.0 100.0 0.0 
80.0 100.0 0.0 
100.0 100.0 0.0 
-100.0 -100.0 20.0 
-80.0 -100.0 20.0 
-60.0 -100.0 20.0 
-40.0 -100.0 20.0 
-20.0 -100.0 20.0 
0.0 -100.0 20.0 
20.0 -100.0 20.0 
40.0 -100.0 20.0 
60.0 -100.0 20.0 
80.0 -100.0 20.0 
100.0 -100.0 20.0 
-100.0 -80.0 20.0 
-80.0 -80.0 20.0 
-60.0 -80.0 20.0 
-40.0 -80.0 20.0 
-20.0 -80.0 20.0 
0.0 -80.0 20.0 
20.0 -80.0 20.0 
40.0 -80.0 20.0 
60.0 -80.0 20.0 
80.0 -80.0 20.0 
100.0 -80.0 20.0 
-100.0 -60.0 20.0 
-80.0 -60.0 20.0 
-60.0 -60.0 20.0 
-40.0 -60.0 20.0 
-20.0 -60.0 20.0 
0.0 -60.0 20.0 
20.0 -60.0 20.0 
40.0 -60.0 20.0 
60.0 -60.0 20.0 
80.0 -60.0 20.0 
100.0 -60.0 20.0 
-100.0 -40.0 20.0 
-80.0 -40.0 20.0 
-60.0 -40.0 20.0 
-40.0 -40.0 20.0 
-20.0 -40.0 20.0 
0.0 -40.0 20.0 
20.0 -40.0 20.0 
40.0 -40.0 20.0 
60.0 -40.0 20.0 
80.0 -40.0 20.0 
100.0 -40.0 20.0 
-100.0 -20.0 20.0 
-80.0 -20.0 20.0 
-60.0 -20.0 20.0 
-40.0 -20.0 20.0 
-20.0 -20.0 20.0 
0.0 -20.0 20.0 
20.0 -20.0 20.0 
40.0 -20.0 20.0 
60.0 -20.0 20.0 
80.0 -20.0 20.0 
100.0 -20.0 20.0 
-100.0 0.0 20.0 
-80.0 0.0 20.0 
-60.0 0.0 20.0 
-40.0 0.0 20.0 
-20.0 0.0 20.0 
0.0 0.0 20.0 
20.0 0.0 20.0 
40.0 0.0 20.0 
60.0 0.0 20.0 
80.0 0.0 20.0 
100.0 0.0 20.0 
-100.0 20.0 20.0 
-80.0 20.0 20.0 
-60.0 20.0 20.0 
-40.0 20.0 20.0 
-20.0 20.0 20.0 
0.0 20.0 20.0 
20.0 20.0 20.0 
40.0 20.0 20.0 
60.0 20.0 20.0 
80.0 20.0 20.0 
100.0 20.0 20.0 
-100.0 40.0 20.0 
-80.0 40.0 20.0 
-60.0 40.0 20.0 
-40.0 40.0 20.0 
-20.0 40.0 20.0 
0.0 40.0 20.0 
20.0 40.0 20.0 
40.0 40.0 20.0 
60.0 40.0 20.0 
80.0 40.0 20.0 
100.0 40.0 20.0 
-100.0 60.0 20.0 
-80.0 60.0 20.0 
-60.0 60.0 20.0 
-40.0 60.0 20.0 
-20.0 60.0 20.0 
0.0 60.0 20.0 
20.0 60.0 20.0 
40.0 60.0 20.0 
60.0 60.0 20.0 
80.0 60.0 20.0 
100.0 60.0 20.0 
-100.0 80.0 20.0 
-80.0 80.0 20.0 
-60.0 80.0 20.0 
-40.0 80.0 20.0 
-20.0 80.0 20.0 
0.0 80.0 20.0 
20.0 80.0 20.0 
40.0 80.0 20.0 
60.0 80.0 20.0 
80.0 80.0 20.0 
100.0 80.0 20.0 
-100.0 100.0 20.0 
-80.0 100.0 20.0 
-60.0 100.0 20.0 
-40.0 100.0 20.0 
-20.0 100.0 20.0 
0.0 100.0 20.0 
20.0 100.0 20.0 
40.0 100.0 20.0 
60.0 100.0 20.0 
80.0 100.0 20.0 
100.0 100.0 20.0 
-100.0 -100.0 40.0 
-80.0 -100.0 40.0 
-60.0 -100.0 40.0 
-40.0 -100.0 40.0 
-20.0 -100.0 40.0 
0.0 -100.0 40.0 
20.0 -100.0 40.0 
40.0 -100.0 40.0 
60.0 -100.0 40.0 
80.0 -100.0 40.0 
100.0 -100.0 40.0 
-100.0 -80.0 40.0 
-80.0 -80.0 40.0 
-60.0 -80.0 40.0 
-40.0 -80.0 40.0 
-20.0 -80.0 40.0 
0.0 -80.0 40.0 
20.0 -80.0 40.0 
40.0 -80.0 40.0 
60.0 -80.0 40.0 
80.0 -80.0 40.0 
100.0 -80.0 40.0 
-100.0 -60.0 40.0 
-80.0 -60.0 40.0 
-60.0 -60.0 40.0 
-40.0 -60.0 40.0 
-20.0 -60.0 40.0 
0.0 -60.0 40.0 
20.0 -60.0 40.0 
40.0 -60.0 40.0 
60.0 -60.0 40.0 
80.0 -60.0 40.0 
100.0 -60.0 40.0 
-100.0 -40.0 40.0 
-80.0 -40.0 40.0 
-60.0 -40.0 40.0 
-40.0 -40.0 40.0 
-20.0 -40.0 40.0 
0.0 -40.0 40.0 
20.0 -40.0 40.0 
40.0 -40.0 40.0 
60.0 -40.0 40.0 
80.0 -40.0 40.0 
100.0 -40.0 40.0 
-100.0 -20.0 40.0 
-80.0 -20.0 40.0 
-60.0 -20.0 40.0 
-40.0 -20.0 40.0 
-20.0 -20.0 40.0 
0.0 -20.0 40.0 
20.0 -20.0 40.0 
40.0 -20.0 40.0 
60.0 -20.0 40.0 
80.0 -20.0 40.0 
100.0 -20.0 40.0 
-100.0 0.0 40.0 
-80.0 0.0 40.0 
-60.0 0.0 40.0 
-40.0 0.0 40.0 
-20.0 0.0 40.0 
0.0 0.0 40.0 
20.0 0.0 40.0 
40.0 0.0 40.0 
60.0 0.0 40.0 
80.0 0.0 40.0 
100.0 0.0 40.0 
-100.0 20.0 40.0 
-80.0 20.0 40.0 
-60.0 20.0 40.0 
-40.0 20.0 40.0 
-20.0 20.0 40.0 
0.0 20.0 40.0 
20.0 20.0 40.0 
40.0 20.0 40.0 
60.0 20.0 40.0 
80.0 20.0 40.0 
100.0 20.0 40.0 
-100.0 40.0 40.0 
-80.0 40.0 40.0 
-60.0 40.0 40.0 
-40.0 40.0 40.0 
-20.0 40.0 40.0 
0.0 40.0 40.0 
20.0 40.0 40.0 
40.0 40.0 40.0 
60.0 40.0 40.0 
80.0 40.0 40.0 
100.0 40.0 40.0 
-100.0 60.0 40.0 
-80.0 60.0 40.0 
-60.0 60.0 40.0 
-40.0 60.0 40.0 
-20.0 60.0 40.0 
0.0 60.0 40.0 
20.0 60.0 40.0 
40.0 60.0 40.0 
60.0 60.0 40.0 
80.0 60.0 40.0 
100.0 60.0 40.0 
-100.0 80.0 40.0 
-80.0 80.0 40.0 
-60.0 80.0 40.0 
-40.0 80.0 40.0 
-20.0 80.0 40.0 
0.0 80.0 40.0 
20.0 80.0 40.0 
40.0 80.0 40.0 
60.0 80.0 40.0 
80.0 80.0 40.0 
100.0 80.0 40.0 
-100.0 100.0 40.0 
-80.0 100.0 40.0 
-60.0 100.0 40.0 
-40.0 100.0 40.0 
-20.0 100.0 40.0 
0.0 100.0 40.0 
20.0 100.0 40.0 
40.0 100.0 40.0 
60.0 100.0 40.0 
80.0 100.0 40.0 
100.0 100.0 40.0 
-100.0 -100.0 60.0 
-80.0 -100.0 60.0 
-60.0 -100.0 60.0 
-40.0 -100.0 60.0 
-20.0 -100.0 60.0 
0.0 -100.0 60.0 
20.0 -100.0 60.0 
40.0 -100.0 60.0 
60.0 -100.0 60.0 
80.0 -100.0 60.0 
100.0 -100.0 60.0 
-100.0 -80.0 60.0 
-80.0 -80.0 60.0 
-60.0 -80.0 60.0 
-40.0 -80.0 60.0 
-20.0 -80.0 60.0 
0.0 -80.0 60.0 
20.0 -80.0 60.0 
40.0 -80.0 60.0 
60.0 -80.0 60.0 
80.0 -80.0 60.0 
100.0 -80.0 60.0 
-100.0 -60.0 60.0 
-80.0 -60.0 60.0 
-60.0 -60.0 60.0 
-40.0 -60.0 60.0 
-20.0 -60.0 60.0 
0.0 -60.0 60.0 
20.0 -60.0 60.0 
40.0 -60.0 60.0 
60.0 -60.0 60.0 
80.0 -60.0 60.0 
100.0 -60.0 60.0 
-100.0 -40.0 60.0 
-80.0 -40.0 60.0 
-60.0 -40.0 60.0 
-40.0 -40.0 60.0 
-20.0 -40.0 60.0 
0.0 -40.0 60.0 
20.0 -40.0 60.0 
40.0 -40.0 60.0 
60.0 -40.0 60.0 
80.0 -40.0 60.0 
100.0 -40.0 60.0 
-100.0 -20.0 60.0 
-80.0 -20.0 60.0 
-60.0 -20.0 60.0 
-40.0 -20.0 60.0 
-20.0 -20.0 60.0 
0.0 -20.0 60.0 
20.0 -20.0 60.0 
40.0 -20.0 60.0 
60.0 -20.0 60.0 
80.0 -20.0 60.0 
100.0 -20.0 60.0 
-100.0 0.0 60.0 
-80.0 0.0 60.0 
-60.0 0.0 60.0 
-40.0 0.0 60.0 
-20.0 0.0 60.0 
0.0 0.0 60.0 
20.0 0.0 60.0 
40.0 0.0 60.0 
60.0 0.0 60.0 
80.0 0.0 60.0 
100.0 0.0 60.0 
-100.0 20.0 60.0 
-80.0 20.0 60.0 
-60.0 20.0 60.0 
-40.0 20.0 60.0 
-20.0 20.0 60.0 
0.0 20.0 60.0 
20.0 20.0 60.0 
40.0 20.0 60.0 
60.0 20.0 60.0 
80.0 20.0 60.0 
100.0 20.0 60.0 
-100.0 40.0 60.0 
-80.0 40.0 60.0 
-60.0 40.0 60.0 
-40.0 40.0 60.0 
-20.0 40.0 60.0 
0.0 40.0 60.0 
20.0 40.0 60.0 
40.0 40.0 60.0 
60.0 40.0 60.0 
80.0 40.0 60.0 
100.0 40.0 60.0 
-100.0 60.0 60.0 
-80.0 60.0 60.0 
-60.0 60.0 60.0 
-40.0 60.0 60.0 
-20.0 60.0 60.0 
0.0 60.0 60.0 
20.0 60.0 60.0 
40.0 60.0 60.0 
60.0 60.0 60.0 
80.0 60.0 60.0 
100.0 60.0 60.0 
-100.0 80.0 60.0 
-80.0 80.0 60.0 
-60.0 80.0 60.0 
-40.0 80.0 60.0 
-20.0 80.0 60.0 
0.0 80.0 60.0 
20.0 80.0 60.0 
40.0 80.0 60.0 
60.0 80.0 60.0 
80.0 80.0 60.0 
100.0 80.0 60.0 
-100.0 100.0 60.0 
-80.0 100.0 60.0 
-60.0 100.0 60.0 
-40.0 100.0 60.0 
-20.0 100.0 60.0 
0.0 100.0 60.0 
20.0 100.0 60.0 
40.0 100.0 60.0 
60.0 100.0 60.0 
80.0 100.0 60.0 
100.0 100.0 60.0 
-100.0 -100.0 80.0 
-80.0 -100.0 80.0 
-60.0 -100.0 80.0 
-40.0 -100.0 80.0 
-20.0 -100.0 80.0 
0.0 -100.0 80.0 
20.0 -100.0 80.0 
40.0 -100.0 80.0 
60.0 -100.0 80.0 
80.0 -100.0 80.0 
100.0 -100.0 80.0 
-100.0 -80.0 80.0 
-80.0 -80.0 80.0 
-60.0 -80.0 80.0 
-40.0 -80.0 80.0 
-20.0 -80.0 80.0 
0.0 -80.0 80.0 
20.0 -80.0 80.0 
40.0 -80.0 80.0 
60.0 -80.0 80.0 
80.0 -80.0 80.0 
100.0 -80.0 80.0 
-100.0 -60.0 80.0 
-80.0 -60.0 80.0 
-60.0 -60.0 80.0 
-40.0 -60.0 80.0 
-20.0 -60.0 80.0 
0.0 -60.0 80.0 
20.0 -60.0 80.0 
40.0 -60.0 80.0 
60.0 -60.0 80.0 
80.0 -60.0 80.0 
100.0 -60.0 80.0 
-100.0 -40.0 80.0 
-80.0 -40.0 80.0 
-60.0 -40.0 80.0 
-40.0 -40.0 80.0 
-20.0 -40.0 80.0 
0.0 -40.0 80.0 
20.0 -40.0 80.0 
40.0 -40.0 80.0 
60.0 -40.0 80.0 
80.0 -40.0 80.0 
100.0 -40.0 80.0 
-100.0 -20.0 80.0 
-80.0 -20.0 80.0 
-60.0 -20.0 80.0 
-40.0 -20.0 80.0 
-20.0 -20.0 80.0 
0.0 -20.0 80.0 
20.0 -20.0 80.0 
40.0 -20.0 80.0 
60.0 -20.0 80.0 
80.0 -20.0 80.0 
100.0 -20.0 80.0 
-100.0 0.0 80.0 
-80.0 0.0 80.0 
-60.0 0.0 80.0 
-40.0 0.0 80.0 
-20.0 0.0 80.0 
0.0 0.0 80.0 
20.0 0.0 80.0 
40.0 0.0 80.0 
60.0 0.0 80.0 
80.0 0.0 80.0 
100.0 0.0 80.0 
-100.0 20.0 80.0 
-80.0 20.0 80.0 
-60.0 20.0 80.0 
-40.0 20.0 80.0 
-20.0 20.0 80.0 
0.0 20.0 80.0 
20.0 20.0 80.0 
40.0 20.0 80.0 
60.0 20.0 80.0 
80.0 20.0 80.0 
100.0 20.0 80.0 
-100.0 40.0 80.0 
-80.0 40.0 80.0 
-60.0 40.0 80.0 
-40.0 40.0 80.0 
-20.0 40.0 80.0 
0.0 40.0 80.0 
20.0 40.0 80.0 
40.0 40.0 80.0 
60.0 40.0 80.0 
80.0 40.0 80.0 
100.0 40.0 80.0 
-100.0 60.0 80.0 
-80.0 60.0 80.0 
-60.0 60.0 80.0 
-40.0 60.0 80.0 
-20.0 60.0 80.0 
0.0 60.0 80.0 
20.0 60.0 80.0 
40.0 60.0 80.0 
60.0 60.0 80.0 
80.0 60.0 80.0 
100.0 60.0 80.0 
-100.0 80.0 80.0 
-80.0 80.0 80.0 
-60.0 80.0 80.0 
-40.0 80.0 80.0 
-20.0 80.0 80.0 
0.0 80.0 80.0 
20.0 80.0 80.0 
40.0 80.0 80.0 
60.0 80.0 80.0 
80.0 80.0 80.0 
100.0 80.0 80.0 
-100.0 100.0 80.0 
-80.0 100.0 80.0 
-60.0 100.0 80.0 
-40.0 100.0 80.0 
-20.0 100.0 80.0 
0.0 100.0 80.0 
20.0 100.0 80.0 
40.0 100.0 80.0 
60.0 100.0 80.0 
80.0 100.0 80.0 
100.0 100.0 80.0 
-100.0 -100.0 100.0 
-80.0 -100.0 100.0 
-60.0 -100.0 100.0 
-40.0 -100.0 100.0 
-20.0 -100.0 100.0 
0.0 -100.0 100.0 
20.0 -100.0 100.0 
40.0 -100.0 100.0 
60.0 -100.0 100.0 
80.0 -100.0 100.0 
100.0 -100.0 100.0 
-100.0 -80.0 100.0 
-80.0 -80.0 100.0 
-60.0 -80.0 100.0 
-40.0 -80.0 100.0 
-20.0 -80.0 100.0 
0.0 -80.0 100.0 
20.0 -80.0 100.0 
40.0 -80.0 100.0 
60.0 -80.0 100.0 
80.0 -80.0 100.0 
100.0 -80.0 100.0 
-100.0 -60.0 100.0 
-80.0 -60.0 100.0 
-60.0 -60.0 100.0 
-40.0 -60.0 100.0 
-20.0 -60.0 100.0 
0.0 -60.0 100.0 
20.0 -60.0 100.0 
40.0 -60.0 100.0 
60.0 -60.0 100.0 
80.0 -60.0 100.0 
100.0 -60.0 100.0 
-100.0 -40.0 100.0 
-80.0 -40.0 100.0 
-60.0 -40.0 100.0 
-40.0 -40.0 100.0 
-20.0 -40.0 100.0 
0.0 -40.0 100.0 
20.0 -40.0 100.0 
40.0 -40.0 100.0 
60.0 -40.0 100.0 
80.0 -40.0 100.0 
100.0 -40.0 100.0 
-100.0 -20.0 100.0 
-80.0 -20.0 100.0 
-60.0 -20.0 100.0 
-40.0 -20.0 100.0 
-20.0 -20.0 100.0 
0.0 -20.0 100.0 
20.0 -20.0 100.0 
40.0 -20.0 100.0 
60.0 -20.0 100.0 
80.0 -20.0 100.0 
100.0 -20.0 100.0 
-100.0 0.0 100.0 
-80.0 0.0 100.0 
-60.0 0.0 100.0 
-40.0 0.0 100.0 
-20.0 0.0 100.0 
0.0 0.0 100.0 
20.0 0.0 100.0 
40.0 0.0 100.0 
60.0 0.0 100.0 
80.0 0.0 100.0 
100.0 0.0 100.0 
-100.0 20.0 100.0 
-80.0 20.0 100.0 
-60.0 20.0 100.0 
-40.0 20.0 100.0 
-20.0 20.0 100.0 
0.0 20.0 100.0 
20.0 20.0 100.0 
40.0 20.0 100.0 
60.0 20.0 100.0 
80.0 20.0 100.0 
100.0 20.0 100.0 
-100.0 40.0 100.0 
-80.0 40.0 100.0 
-60.0 40.0 100.0 
-40.0 40.0 100.0 
-20.0 40.0 100.0 
0.0 40.0 100.0 
20.0 40.0 100.0 
40.0 40.0 100.0 
60.0 40.0 100.0 
80.0 40.0 100.0 
100.0 40.0 100.0 
-100.0 60.0 100.0 
-80.0 60.0 100.0 
-60.0 60.0 100.0 
-40.0 60.0 100.0 
-20.0 60.0 100.0 
0.0 60.0 100.0 
20.0 60.0 100.0 
40.0 60.0 100.0 
60.0 60.0 100.0 
80.0 60.0 100.0 
100.0 60.0 100.0 
-100.0 80.0 100.0 
-80.0 80.0 100.0 
-60.0 80.0 100.0 
-40.0 80.0 100.0 
-20.0 80.0 100.0 
0.0 80.0 100.0 
20.0 80.0 100.0 
40.0 80.0 100.0 
60.0 80.0 100.0 
80.0 80.0 100.0 
100.0 80.0 100.0 
-100.0 100.0 100.0 
-80.0 100.0 100.0 
-60.0 100.0 100.0 
-40.0 100.0 100.0 
-20.0 100.0 100.0 
0.0 100.0 100.0 
20.0 100.0 100.0 
40.0 100.0 100.0 
60.0 100.0 100.0 
80.0 100.0 100.0 
100.0 100.0 100.0 
CELLS 500 4500 
8 0 1 12 11 121 122 133 132 
8 1 2 13 12 122 123 134 133 
8 2 3 14 13 123 124 135 134 
8 3 4 15 14 124 125 136 135 
8 4 5 16 15 125 126 137 136 
8 5 6 17 16 126 127 138 137 
8 6 7 18 17 127 128 139 138 
8 7 8 19 18 128 129 140 139 
8 8 9 20 19 129 130 141 140 
8 9 10 21 20 130 131 142 141 
8 11 12 23 22 132 133 144 143 
8 12 13 24 23 133 134 145 144 
8 13 14 25 24 134 135 146 145 
8 14 15 26 25 135 136 147 146 
8 15 16 27 26 136 137 148 147 
8 16 17 28 27 137 138 149 148 
8 17 18 29 28 138 139 150 149 
8 18 19 30 29 139 140 151 150 
8 19 20 31 30 140 141 152 151 
8 20 21 32 31 141 142 153 152 
8 22 23 34 33 143 144 155 154 
8 23 24 35 34 144 145 156 155 
8 24 25 36 35 145 146 157 156 
8 25 26 37 36 146 147 158 157 
8 26 27 38 37 147 148 159 158 
8 27 28 39 38 148 149 160 159 
8 28 29 40 39 149 150 161 160 
8 29 30 41 40 150 151 162 161 
8 30 31 42 41 151 152 163 162 
8 31 32 43 42 152 153 164 163 
8 33 34 45 44 154 155 166 165 
8 34 35 46 45 155 156 167 166 
8 35 36 47 46 156 157 168 167 
8 36 37 48 47 157 158 169 168 
8 37 38 49 48 158 159 170 169 
8 38 39 50 49 159 160 171 170 
8 39 40 51 50 160 161 172 171 
8 40 41 52 51 161 162 173 172 
8 41 42 53 52 162 163 174 173 
8 42 43 54 53 163 164 175 174 
8 44 45 56 55 165 166 177 176 
8 45 46 57 56 166 167 178 177 
8 46 47 58 57 167 168 179 178 
8 47 48 59 58 168 169 180 179 
8 48 49 60 59 169 170 181 180 
8 49 50 61 60 170 171 182 181 
8 50 51 62 61 171 172 183 182 
8 51 52 63 62 172 173 184 183 
8 52 53 64 63 173 174 185 184 
8 53 54 65 64 174 175 186 185 
8 55 56 67 66 176 177 188 187 
8 56 57 68 67 177 178 189 188 
8 57 58 69 68 178 179 190 189 
8 58 59 70 69 179 180 191 190 
8 59 60 71 70 180 181 192 191 
8 60 61 72 71 181 182 193 192 
8 61 62 73 72 182 183 194 193 
8 62 63 74 73 183 184 195 194 
8 63 64 75 74 184 185 196 195 
8 64 65 76 75 185 186 197 196 
8 66 67 78 77 187 188 199 198 
8 67 68 79 78 188 189 200 199 
8 68 69 80 79 189 190 201 200 
8 69 70 81 80 190 191 202 201 
8 70 71 82 81 191 192 203 202 
8 71 72 83 82 192 193 204 203 
8 72 73 84 83 193 194 205 204 
8 73 74 85 84 194 195 206 205 
8 74 75 86 85 195 196 207 206 
8 75 76 87 86 196 197 208 207 
8 77 78 89 88 198 199 210 209 
8 78 79 90 89 199 200 211 210 
8 79 80 91 90 200 201 212 211 
8 80 81 92 91 201 202 213 212 
8 81 82 93 92 202 203 214 213 
8 82 83 94 93 203 204 215 214 
8 83 84 95 94 204 205 216 215 
8 84 85 96 95 205 206 217 216 
8 85 86 97 96 206 207 218 217 
8 86 87 98 97 207 208 219 218 
8 88 89 100 99 209 210 221 220 
8 89 90 101 100 210 211 222 221 
8 90 91 102 101 211 212 223 222 
8 91 92 103 102 212 213 224 223 
8 92 93 104 103 213 214 225 224 
8 93 94 105 104 214 215 226 225 
8 94 95 106 105 215 216 227 226 
8 95 96 107 106 216 217 228 227 
8 96 97 108 107 217 218 229 228 
8 97 98 109 108 218 219 230 229 
8 99 100 111 110 220 221 232 231 
8 100 101 112 111 221 222 233 232 
8 101 102 113 112 222 223 234 233 
8 102 103 114 113 223 224 235 234 
8 103 104 115 114 224 225 236 235 
8 104 105 116 115 225 226 237 236 
8 105 106 117 116 226 227 238 237 
8 106 107 118 117 227 228 239 238 
8 107 108 119 118 228 229 240 239 
8 108 109 120 119 229 230 241 240 
8 121 122 133 132 242 243 254 253 
8 122 123 134 133 243 244 255 254 
8 123 124 135 134 244 245 256 255 
8 124 125 136 135 245 246 257 256 
8 125 126 137 136 246 247 258 257 
8 126 127 138 137 247 248 259 258 
8 127 128 139 138 248 249 260 259 
8 128 129 140 139 249 250 261 260 
8 129 130 141 140 250 251 262 261 
8 130 131 142 141 251 252 263 262 
8 132 133 144 143 253 254 265 264 
8 133 134 145 144 254 255 266 265 
8 134 135 146 145 255 256 267 266 
8 135 136 147 146 256 257 268 267 
8 136 137 148 147 257 258 269 268 
8 137 138 149 148 258 259 270 269 
8 138 139 150 149 259 260 271 270 
8 139 140 151 150 260 261 272 271 
8 140 141 152 151 261 262 273 272 
8 141 142 153 152 262 263 274 273 
8 143 144 155 154 264 265 276 275 
8 144 145 156 155 265 266 277 276 
8 145 146 157 156 266 267 278 277 
8 146 147 158 157 267 268 279 278 
8 147 148 159 158 268 269 280 279 
8 148 149 160 159 269 270 281 280 
8 149 150 161 160 270 271 282 281 
8 150 151 162 161 271 272 283 282 
8 151 152 163 162 272 273 284 283 
8 152 153 164 163 273 274 285 284 
8 154 155 166 165 275 276 287 286 
8 155 156 167 166 276 277 288 287 
8 156 157 168 167 277 278 289 288 
8 157 158 169 168 278 279 290 289 
8 158 159 170 169 279 280 291 290 
8 159 160 171 170 280 281 292 291 
8 160 161 172 171 281 282 293 292 
8 161 162 173 172 282 283 294 293 
8 162 163 174 173 283 284 295 294 
8 163 164 175 174 284 285 296 295 
8 165 166 177 176 286 287 298 297 
8 166 167 178 177 287 288 299 298 
8 167 168 179 178 288 289 300 299 
8 168 169 180 179 289 290 301 300 
8 169 170 181 180 290 291 302 301 
8 170 171 182 181 291 292 303 302 
8 171 172 183 182 292 293 304 303 
8 172 173 184 183 293 294 305 304 
8 173 174 185 184 294 295 306 305 
8 174 175 186 185 295 296 307 306 
8 176 177 188 187 297 298 309 308 
8 177 178 189 188 298 299 310 309 
8 178 179 190 189 299 300 311 310 
8 179 180 191 190 300 301 312 311 
8 180 181 192 191 301 302 313 312 
8 181 182 193 192 302 303 314 313 
8 182 183 194 193 303 304 315 314 
8 183 184 195 194 304 305 316 315 
8 184 185 196 195 305 306 317 316 
8 185 186 197 196 306 307 318 317 
8 187 188 199 198 308 309 320 319 
8 188 189 200 199 309 310 321 320 
8 189 190 201 200 310 311 322 321 
8 190 191 202 201 311 312 323 322 
8 191 192 203 202 312 313 324 323 
8 192 193 204 203 313 314 325 324 
8 193 194 205 204 314 315 326 325 
8 194 195 206 205 315 316 327 326 
8 195 196 207 206 316 317 328 327 
8 196 197 208 207 317 318 329 328 
8 198 199 210 209 319 320 331 330 
8 199 200 211 210 320 321 332 331 
8 200 201 212 211 321 322 333 332 
8 201 202 213 212 322 323 334 333 
8 202 203 214 213 323 324 335 334 
8 203 204 215 214 324 325 336 335 
8 204 205 216 215 325 326 337 336 
8 205 206 217 216 326 327 338 337 
8 206 207 218 217 327 328 339 338 
8 207 208 219 218 328 329 340 339 
8 209 210 221 220 330 331 342 341 
8 210 211 222 221 331 332 343 342 
8 211 212 223 222 332 333 344 343 
8 212 213 224 223 333 334 345 344 
8 213 214 225 224 334 335 346 345 
8 214 215 226 225 335 336 347 346 
8 215 216 227 226 336 337 348 347 
8 216 217 228 227 337 338 349 348 
8 217 218 229 228 338 339 350 349 
8 218 219 230 229 339 340 351 350 
8 220 221 232 231 341 342 353 352 
8 221 222 233 232 342 343 354 353 
8 222 223 234 233 343 344 355 354 
8 223 224 235 234 344 345 356 355 
8 224 225 236 235 345 346 357 356 
8 225 226 237 236 346 347 358 357 
8 226 227 238 237 347 348 359 358 
8 227 228 239 238 348 349 360 359 
8 228 229 240 239 349 350 361 360 
8 229 230 241 240 350 351 362 361 
8 242 243 254 253 363 364 375 374 
8 243 244 255 254 364 365 376 375 
8 244 245 256 255 365 366 377 376 
8 245 246 257 256 366 367 378 377 
8 246 247 258 257 367 368 379 378 
8 247 248 259 258 368 369 380 379 
8 248 249 260 259 369 370 381 380 
8 249 250 261 260 370 371 382 381 
8 250 251 262 261 371 372 383 382 
8 251 252 263 262 372 373 384 383 
8 253 254 265 264 374 375 386 385 
8 254 255 266 265 375 376 387 386 
8 255 256 267 266 376 377 388 387 
8 256 257 268 267 377 378 389 388 
8 257 258 269 268 378 379 390 389 
8 258 259 270 269 379 380 391 390 
8 259 260 271 270 380 381 392 391 
8 260 261 272 271 381 382 393 392 
8 261 262 273 272 382 383 394 393 
8 262 263 274 273 383 384 395 394 
8 264 265 276 275 385 386 397 396 
8 265 266 277 276 386 387 398 397 
8 266 267 278 277 387 388 399 398 
8 267 268 279 278 388 389 400 399 
8 268 269 280 279 389 390 401 400 
8 269 270 281 280 390 391 402 401 
8 270 271 282 281 391 392 403 402 
8 271 272 283 282 392 393 404 403 
8 272 273 284 283 393 394 405 404 
8 273 274 285 284 394 395 406 405 
8 275 276 287 286 396 397 408 407 
8 276 277 288 287 397 398 409 408 
8 277 278 289 288 398 399 410 409 
8 278 279 290 289 399 400 411 410 
8 279 280 291 290 400 401 412 411 
8 280 281 292 291 401 402 413 412 
8 281 282 293 292 402 403 414 413 
8 282 283 294 293 403 404 415 414 
8 283 284 295 294 404 405 416 415 
8 284 285 296 295 405 406 417 416 
8 286 287 298 297 407 408 419 418 
8 287 288 299 298 408 409 420 419 
8 288 289 300 299 409 410 421 420 
8 289 290 301 300 410 411 422 421 
8 290 291 302 301 411 412 423 422 
8 291 292 303 302 412 413 424 423 
8 292 293 304 303 413 414 425 424 
8 293 294 305 304 414 415 426 425 
8 294 295 306 305 415 416 427 426 
8 295 296 307 306 416 417 428 427 
8 297 298 309 308 418 419 430 429 
8 298 299 310 309 419 420 431 430 
8 299 300 311 310 420 421 432 431 
8 300 301 312 311 421 422 433 432 
8 301 302 313 312 422 423 434 433 
8 302 303 314 313 423 424 435 434 
8 303 304 315 314 424 425 436 435 
8 304 305 316 315 425 426 437 436 
8 305 306 317 316 426 427 438 437 
8 306 307 318 317 427 428 439 438 
8 308 309 320 319 429 430 441 440 
8 309 310 321 320 430 431 442 441 
8 310 311 322 321 431 432 443 442 
8 311 312 323 322 432 433 444 443 
8 312 313 324 323 433 434 445 444 
8 313 314 325 324 434 435 446 445 
8 314 315 326 325 435 436 447 446 
8 315 316 327 326 436 437 448 447 
8 316 317 328 327 437 438 449 448 
8 317 318 329 328 438 439 450 449 
8 319 320 331 330 440 441 452 451 
8 320 321 332 331 441 442 453 452 
8 321 322 333 332 442 443 454 453 
8 322 323 334 333 443 444 455 454 
8 323 324 335 334 444 445 456 455 
8 324 325 336 335 445 446 457 456 
8 325 326 337 336 446 447 458 457 
8 326 327 338 337 447 448 459 458 
8 327 328 339 338 448 449 460 459 
8 328 329 340 339 449 450 461 460 
8 330 331 342 341 451 452 463 462 
8 331 332 343 342 452 453 464 463 
8 332 333 344 343 453 454 465 464 
8 333 334 345 344 454 455 466 465 
8 334 335 346 345 455 456 467 466 
8 335 336 347 346 456 457 468 467 
8 336 337 348 347 457 458 469 468 
8 337 338 349 348 458 459 470 469 
8 338 339 350 349 459 460 471 470 
8 339 340 351 350 460 461 472 471 
8 341 342 353 352 462 463 474 473 
8 342 343 354 353 463 464 475 474 
8 343 344 355 354 464 465 476 475 
8 344 345 356 355 465 466 477 476 
8 345 346 357 356 466 467 478 477 
8 346 347 358 357 467 468 479 478 
8 347 348 359 358 468 469 480 479 
8 348 349 360 359 469 470 481 480 
8 349 350 361 360 470 471 482 481 
8 350 351 362 361 471 472 483 482 
8 363 364 375 374 484 485 496 495 
8 364 365 376 375 485 486 497 496 
8 365 366 377 376 486 487 498 497 
8 366 367 378 377 487 488 499 498 
8 367 368 379 378 488 489 500 499 
8 368 369 380 379 489 490 501 500 
8 369 370 381 380 490 491 502 501 
8 370 371 382 381 491 492 503 502 
8 371 372 383 382 492 493 504 503 
8 372 373 384 383 493 494 505 504 
8 374 375 386 385 495 496 507 506 
8 375 376 387 386 496 497 508 507 
8 376 377 388 387 497 498 509 508 
8 377 378 389 388 498 499 510 509 
8 378 379 390 389 499 500 511 510 
8 379 380 391 390 500 501 512 511 
8 380 381 392 391 501 502 513 512 
8 381 382 393 392 502 503 514 513 
8 382 383 394 393 503 504 515 514 
8 383 384 395 394 504 505 516 515 
8 385 386 397 396 506 507 518 517 
8 386 387 398 397 507 508 519 518 
8 387 388 399 398 508 509 520 519 
8 388 389 400 399 509 510 521 520 
8 389 390 401 400 510 511 522 521 
8 390 391 402 401 511 512 523 522 
8 391 392 403 402 512 513 524 523 
8 392 393 404 403 513 514 525 524 
8 393 394 405 404 514 515 526 525 
8 394 395 406 405 515 516 527 526 
8 396 397 408 407 517 518 529 528 
8 397 398 409 408 518 519 530 529 
8 398 399 410 409 519 520 531 530 
8 399 400 411 410 520 521 532 531 
8 400 401 412 411 521 522 533 532 
8 401 402 413 412 522 523 534 533 
8 402 403 414 413 523 524 535 534 
8 403 404 415 414 524 525 536 535 
8 404 405 416 415 525 526 537 536 
8 405 406 417 416 526 527 538 537 
8 407 408 419 418 528 529 540 539 
8 408 409 420 419 529 530 541 540 
8 409 410 421 420 530 531 542 541 
8 410 411 422 421 531 532 543 542 
8 411 412 423 422 532 533 544 543 
8 412 413 424 423 533 534 545 544 
8 413 414 425 424 534 535 546 545 
8 414 415 426 425 535 536 547 546 
8 415 416 427 426 536 537 548 547 
8 416 417 428 427 537 538 549 548 
8 418 419 430 429 539 540 551 550 
8 419 420 431 430 540 541 552 551 
8 420 421 432 431 541 542 553 552 
8 421 422 433 432 542 543 554 553 
8 422 423 434 433 543 544 555 554 
8 423 424 435 434 544 545 556 555 
8 424 425 436 435 545 546 557 556 
8 425 426 437 436 546 547 558 557 
8 426 427 438 437 547 548 559 558 
8 427 428 439 438 548 549 560 559 
8 429 430 441 440 550 551 562 561 
8 430 431 442 441 551 552 563 562 
8 431 432 443 442 552 553 564 563 
8 432 433 444 443 553 554 565 564 
8 433 434 445 444 554 555 566 565 
8 434 435 446 445 555 556 567 566 
8 435 436 447 446 556 557 568 567 
8 436 437 448 447 557 558 569 568 
8 437 438 449 448 558 559 570 569 
8 438 439 450 449 559 560 571 570 
8 440 441 452 451 561 562 573 572 
8 441 442 453 452 562 563 574 573 
8 442 443 454 453 563 564 575 574 
8 443 444 455 454 564 565 576 575 
8 444 445 456 455 565 566 577 576 
8 445 446 457 456 566 567 578 577 
8 446 447 458 457 567 568 579 578 
8 447 448 459 458 568 569 580 579 
8 448 449 460 459 569 570 581 580 
8 449 450 461 460 570 571 582 581 
8 451 452 463 462 572 573 584 583 
8 452 453 464 463 573 574 585 584 
8 453 454 465 464 574 575 586 585 
8 454 455 466 465 575 576 587 586 
8 455 456 467 466 576 577 588 587 
8 456 457 468 467 577 578 589 588 
8 457 458 469 468 578 579 590 589 
8 458 459 470 469 579 580 591 590 
8 459 460 471 470 580 581 592 591 
8 460 461 472 471 581 582 593 592 
8 462 463 474 473 583 584 595 594 
8 463 464 475 474 584 585 596 595 
8 464 465 476 475 585 586 597 596 
8 465 466 477 476 586 587 598 597 
8 466 467 478 477 587 588 599 598 
8 467 468 479 478 588 589 600 599 
8 468 469 480 479 589 590 601 600 
8 469 470 481 480 590 591 602 601 
8 470 471 482 481 591 592 603 602 
8 471 472 483 482 592 593 604 603 
8 484 485 496 495 605 606 617 616 
8 485 486 497 496 606 607 618 617 
8 486 487 498 497 607 608 619 618 
8 487 488 499 498 608 609 620 619 
8 488 489 500 499 609 610 621 620 
8 489 490 501 500 610 611 622 621 
8 490 491 502 501 611 612 623 622 
8 491 492 503 502 612 613 624 623 
8 492 493 504 503 613 614 625 624 
8 493 494 505 504 614 615 626 625 
8 495 496 507 506 616 617 628 627 
8 496 497 508 507 617 618 629 628 
8 497 498 509 508 618 619 630 629 
8 498 499 510 509 619 620 631 630 
8 499 500 511 510 620 621 632 631 
8 500 501 512 511 621 622 633 632 
8 501 502 513 512 622 623 634 633 
8 502 503 514 513 623 624 635 634 
8 503 504 515 514 624 625 636 635 
8 504 505 516 515 625 626 637 636 
8 506 507 518 517 627 628 639 638 
8 507 508 519 518 628 629 640 639 
8 508 509 520 519 629 630 641 640 
8 509 510 521 520 630 631 642 641 
8 510 511 522 521 631 632 643 642 
8 511 512 523 522 632 633 644 643 
8 512 513 524 523 633 634 645 644 
8 513 514 525 524 634 635 646 645 
8 514 515 526 525 635 636 647 646 
8 515 516 527 526 636 637 648 647 
8 517 518 529 528 638 639 650 649 
8 518 519 530 529 639 640 651 650 
8 519 520 531 530 640 641 652 651 
8 520 521 532 531 641 642 653 652 
8 521 522 533 532 642 643 654 653 
8 522 523 534 533 643 644 655 654 
8 523 524 535 534 644 645 656 655 
8 524 525 536 535 645 646 657 656 
8 525 526 537 536 646 647 658 657 
8 526 527 538 537 647 648 659 658 
8 528 529 540 539 649 650 661 660 
8 529 530 541 540 650 651 662 661 
8 530 531 542 541 651 652 663 662 
8 531 532 543 542 652 653 664 663 
8 532 533 544 543 653 654 665 664 
8 533 534 545 544 654 655 666 665 
8 534 535 546 545 655 656 667 666 
8 535 536 547 546 656 657 668 667 
8 536 537 548 547 657 658 669 668 
8 537 538 549 548 658 659 670 669 
8 539 540 551 550 660 661 672 671 
8 540 541 552 551 661 662 673 672 
8 541 542 553 552 662 663 674 673 
8 542 543 554 553 663 664 675 674 
8 543 544 555 554 664 665 676 675 
8 544 545 556 555 665 666 677 676 
8 545 546 557 556 666 667 678 677 
8 546 547 558 557 667 668 679 678 
8 547 548 559 558 668 669 680 679 
8 548 549 560 559 669 670 681 680 
8 550 551 562 561 671 672 683 682 
8 551 552 563 562 672 673 684 683 
8 552 553 564 563 673 674 685 684 
8 553 554 565 564 674 675 686 685 
8 554 555 566 565 675 676 687 686 
8 555 556 567 566 676 677 688 687 
8 556 557 568 567 677 678 689 688 
8 557 558 569 568 678 679 690 689 
8 558 559 570 569 679 680 691 690 
8 559 560 571 570 680 681 692 691 
8 561 562 573 572 682 683 694 693 
8 562 563 574 573 683 684 695 694 
8 563 564 575 574 684 685 696 695 
8 564 565 576 575 685 686 697 696 
8 565 566 577 576 686 687 698 697 
8 566 567 578 577 687 688 699 698 
8 567 568 579 578 688 689 700 699 
8 568 569 580 579 689 690 701 700 
8 569 570 581 580 690 691 702 701 
8 570 571 582 581 691 692 703 702 
8 572 573 584 583 693 694 705 704 
8 573 574 585 584 694 695 706 705 
8 574 575 586 585 695 696 707 706 
8 575 576 587 586 696 697 708 707 
8 576 577 588 587 697 698 709 708 
8 577 578 589 588 698 699 710 709 
8 578 579 590 589 699 700 711 710 
8 579 580 591 590 700 701 712 711 
8 580 581 592 591 701 702 713 712 
8 581 582 593 592 702 703 714 713 
8 583 584 595 594 704 705 716 715 
8 584 585 596 595 705 706 717 716 
8 585 586 597 596 706 707 718 717 
8 586 587 598 597 707 708 719 718 
8 587 588 599 598 708 709 720 719 
8 588 589 600 599 709 710 721 720 
8 589 590 601 600 710 711 722 721 
8 590 591 602 601 711 712 723 722 
8 591 592 603 602 712 713 724 723 
8 592 593 604 603 713 714 725 724 
CELL_TYPES 500 
12 
12 
12 
12 
12 
12 
12 
12 
12 
12 
12 
12 
12 
12 
12 
12 
12 
12 
12 
12 
12 
12 
12 
12 
12 
12 
12 
12 
12 
12 
12 
12 
12 
12 
12 
12 
12 
12 
12 
12 
12 
12 
12 
12 
12 
12 
12 
12 
12 
12 
12 
12 
12 
12 
12 
12 
12 
12 
12 
12 
12 
12 
12 
12 
12 
12 
12 
12 
12 
12 
12 
12 
12 
12 
12 
12 
12 
12 
12 
12 
12 
12 
12 
12 
12 
12 
12 
12 
12 
12 
12 
12 
12 
12 
12 
12 
12 
12 
12 
12 
12 
12 
12 
12 
12 
12 
12 
12 
12 
12 
12 
12 
12 
12 
12 
12 
12 
12 
12 
12 
12 
12 
12 
12 
12 
12 
12 
12 
12 
12 
12 
12 
12 
12 
12 
12 
12 
12 
12 
12 
12 
12 
12 
12 
12 
12 
12 
12 
12 
12 
12 
12 
12 
12 
12 
12 
12 
12 
12 
12 
12 
12 
12 
12 
12 
12 
12 
12 
12 
12 
12 
12 
12 
12 
12 
12 
12 
12 
12 
12 
12 
12 
12 
12 
12 
12 
12 
12 
12 
12 
12 
12 
12 
12 
12 
12 
12 
12 
12 
12 
12 
12 
12 
12 
12 
12 
12 
12 
12 
12 
12 
12 
12 
12 
12 
12 
12 
12 
12 
12 
12 
12 
12 
12 
12 
12 
12 
12 
12 
12 
12 
12 
12 
12 
12 
12 
12 
12 
12 
12 
12 
12 
12 
12 
12 
12 
12 
12 
12 
12 
12 
12 
12 
12 
12 
12 
12 
12 
12 
12 
12 
12 
12 
12 
12 
12 
12 
12 
12 
12 
12 
12 
12 
12 
12 
12 
12 
12 
12 
12 
12 
12 
12 
12 
12 
12 
12 
12 
12 
12 
12 
12 
12 
12 
12 
12 
12 
12 
12 
12 
12 
12 
12 
12 
12 
12 
12 
12 
12 
12 
12 
12 
12 
12 
12 
12 
12 
12 
12 
12 
12 
12 
12 
12 
12 
12 
12 
12 
12 
12 
12 
12 
12 
12 
12 
12 
12 
12 
12 
12 
12 
12 
12 
12 
12 
12 
12 
12 
12 
12 
12 
12 
12 
12 
12 
12 
12 
12 
12 
12 
12 
12 
12 
12 
12 
12 
12 
12 
12 
12 
12 
12 
12 
12 
12 
12 
12 
12 
12 
12 
12 
12 
12 
12 
12 
12 
12 
12 
12 
12 
12 
12 
12 
12 
12 
12 
12 
12 
12 
12 
12 
12 
12 
12 
12 
12 
12 
12 
12 
12 
12 
12 
12 
12 
12 
12 
12 
12 
12 
12 
12 
12 
12 
12 
12 
12 
12 
12 
12 
12 
12 
12 
12 
12 
12 
12 
12 
12 
12 
12 
12 
12 
12 
12 
12 
12 
12 
12 
12 
12 
12 
12 
12 
12 
12 
12 
12 
12 
12 
12 
12 
12 
12 
12 
12 
12 
12 
12 
12 
12 
12 
12 
12 
12 
12 
12 
12 
12 
12 
12 
12 
12 
12 
12 
12 
12 
12 
12 
12 
12 
12 
12 
12 
12 
12 
12 
12 
12 
12 
12 
POINT_DATA 726 
VECTORS displacement float 
LOOKUP_TABLE default 
-0.0016695827319268234 -2.859391691533685e-16 0.0 
-0.001669582731926747 -1.9314672112148144e-16 0.0 
-0.0016695827319268119 7.946835835056893e-17 0.0 
-0.0016695827319269329 3.8813748333009234e-16 0.0 
-0.0016695827319268299 4.841296435017169e-16 0.0 
-0.0016695827319268383 6.384417718776671e-16 0.0 
-0.0016695827319268346 7.874336003534621e-16 0.0 
-0.0016695827319269086 9.324473706631485e-16 0.0 
-0.0016695827319268743 1.0365010869517773e-15 0.0 
-0.001669582731926895 1.3014317649597736e-15 0.0 
-0.001669582731927002 1.3421441418654693e-15 0.0 
-0.001669582731927021 -4.380667953128572e-16 0.0 
-0.0016695827319271443 -1.4000202042447344e-16 3.2384812202057785e-17 
-0.0016695827319272252 1.0377319764789893e-16 6.189581473552146e-17 
-0.0016695827319271716 4.723244711884042e-16 9.570130291607842e-17 
-0.0016695827319270762 4.3210619451749227e-16 2.3218528460893594e-17 
-0.0016695827319269524 5.545674565349858e-16 -4.4037375795089216e-17 
-0.0016695827319269051 9.362943559600028e-16 -2.1684951349649863e-17 
-0.0016695827319270979 9.756324612090723e-16 -5.443232588620733e-17 
-0.001669582731927091 1.0299967731332164e-15 -4.984266966920621e-17 
-0.001669582731927132 1.3182297070980383e-15 -3.631763041494026e-17 
-0.0016695827319271404 1.539488814376633e-15 0.0 
-0.0016695827319276341 -2.3435938969826715e-16 0.0 
-0.001669582731927586 -1.32076951993179e-16 2.97690268513811e-17 
-0.0016695827319274368 1.539289316558779e-16 1.4934271641355826e-16 
-0.0016695827319273544 4.10219909528656e-16 1.2345753932027412e-17 
-0.001669582731927464 4.279185685219341e-16 -6.154761679468003e-17 
-0.0016695827319274158 5.574119441850985e-16 -3.0167298408897763e-17 
-0.0016695827319274223 8.234880195234084e-16 6.931582691332428e-18 
-0.0016695827319273726 9.966446008311041e-16 -7.266319043373843e-17 
-0.0016695827319275346 1.1314591779775549e-15 -4.1023682005510746e-17 
-0.001669582731927409 1.3557177050692254e-15 2.70030619590193e-17 
-0.001669582731927373 1.4859881504362287e-15 0.0 
-0.001669582731927549 -4.427526924505674e-16 0.0 
-0.0016695827319274865 -4.4548438944152654e-17 7.643986850819134e-17 
-0.0016695827319274958 6.092792761133658e-17 1.2569198391311217e-16 
-0.0016695827319276515 4.415174292426554e-16 1.120613978746082e-16 
-0.0016695827319276096 4.710404097869945e-16 7.013416209854481e-17 
-0.0016695827319275585 5.27517234166405e-16 -5.021466684249726e-17 
-0.0016695827319274797 8.115287867356739e-16 -1.4493693879877244e-16 
-0.0016695827319275992 1.0143170267289589e-15 -7.402634868868997e-17 
-0.0016695827319274834 1.1787002100612793e-15 -1.2355249489217613e-16 
-0.0016695827319273683 1.2211089840543286e-15 3.7530066029528215e-17 
-0.0016695827319275003 1.5951950969980238e-15 0.0 
-0.0016695827319278284 -3.3909356568788144e-16 0.0 
-0.001669582731927887 -1.8910832934905913e-16 7.463447605180158e-18 
-0.001669582731927919 1.2093830921776154e-16 -3.3379458295886296e-17 
-0.0016695827319277614 3.3044989768065047e-16 1.227512735453697e-16 
-0.0016695827319276638 4.680752051632446e-16 1.9284629978211416e-17 
-0.0016695827319277697 5.454065098273556e-16 3.2819708037748736e-17 
-0.0016695827319277818 7.698555485488146e-16 -6.3135809505180296e-18 
-0.0016695827319278395 1.0206470087587302e-15 -2.1854667415237998e-16 
-0.0016695827319277861 1.0637404345948023e-15 -1.631543182023303e-16 
-0.0016695827319276977 1.4346044888702702e-15 -4.312857387407061e-17 
-0.0016695827319275188 1.58699532937555e-15 0.0 
-0.0016695827319277547 -3.852977943089646e-16 0.0 
-0.0016695827319277326 -1.5732638631687533e-17 5.29491437150067e-18 
-0.0016695827319280021 4.279430980857523e-17 6.294381872251309e-17 
-0.0016695827319280617 3.203215319373217e-16 2.864556143722827e-16 
-0.001669582731927964 3.909632047964288e-16 1.0138318558968843e-16 
-0.0016695827319280511 5.624579720984875e-16 -8.749799590156153e-17 
-0.0016695827319280962 8.326161319006076e-16 -6.661098689726787e-17 
-0.0016695827319279763 9.74051867056347e-16 -6.956845548966116e-17 
-0.001669582731927977 1.1097671052601654e-15 -1.1161198506290423e-16 
-0.0016695827319280529 1.3096214448356693e-15 -2.0610339437428642e-16 
-0.0016695827319279633 1.6436104697448433e-15 0.0 
-0.0016695827319281533 -3.6171637258897217e-16 0.0 
-0.0016695827319281407 -5.1753173469455996e-17 1.8839921634429484e-16 
-0.0016695827319282482 1.024894404043888e-16 1.3484701036697776e-16 
-0.0016695827319280962 2.6652577307308224e-16 6.754420667082824e-17 
-0.0016695827319279579 4.823054427913074e-16 1.0548617355243711e-16 
-0.0016695827319281207 6.04598811913997e-16 6.685170832981024e-17 
-0.0016695827319282567 7.885072907663142e-16 -1.8160614107858246e-16 
-0.0016695827319281175 8.974738037136805e-16 -1.4754854398205435e-16 
-0.0016695827319280437 1.13342912806559e-15 -8.729046426339456e-17 
-0.0016695827319281582 1.3200670087750208e-15 -1.5080297424117783e-17 
-0.0016695827319280418 1.6024238348172e-15 0.0 
-0.001669582731928353 -4.306911103183027e-16 0.0 
-0.001669582731928284 -1.034742511648122e-16 5.98171006446787e-17 
-0.0016695827319284239 1.3432704135482773e-16 -7.860228685065491e-17 
-0.0016695827319284048 1.8916681641997688e-16 7.349284105289346e-17 
-0.0016695827319282298 3.6184641856107083e-16 3.75164723617283e-17 
-0.00166958273192808 7.460645225919558e-16 -4.167082925973631e-18 
-0.0016695827319281012 7.52454877076329e-16 2.0859170458722595e-17 
-0.0016695827319282378 9.424935636293597e-16 -3.7792863064129905e-17 
-0.0016695827319284566 1.2594448036349659e-15 -2.112870005227257e-17 
-0.0016695827319283278 1.3867856956197885e-15 -1.5772335585695953e-16 
-0.0016695827319283712 1.7035964896726832e-15 0.0 
-0.001669582731928465 -2.3657364829782843e-16 0.0 
-0.001669582731928594 -1.9781009551735528e-16 -2.1949499917177572e-17 
-0.001669582731928449 7.910630677587543e-17 1.1590349214615312e-16 
-0.0016695827319283757 2.719902803602148e-16 7.793457648345549e-17 
-0.0016695827319284941 4.0820374061579303e-16 1.7291133458607444e-16 
-0.0016695827319285585 5.475726195775214e-16 -1.4327273980969704e-17 
-0.0016695827319286856 8.520376388378088e-16 -4.7959860911596385e-17 
-0.0016695827319286253 1.113110007289308e-15 -2.563682431217973e-17 
-0.0016695827319286379 1.2038095892772127e-15 7.384282666324379e-17 
-0.0016695827319285156 1.295731745407987e-15 4.358606968196177e-17 
-0.0016695827319284766 1.7665934094707039e-15 0.0 
-0.0016695827319287962 -1.8674860300632254e-16 0.0 
-0.0016695827319286709 -1.8323311658538994e-16 1.0813504029880948e-16 
-0.0016695827319287626 -6.469493099846381e-17 7.584930141254482e-17 
-0.0016695827319286901 1.0919312707230804e-16 9.466351595017069e-18 
-0.001669582731928686 4.304265343584517e-16 5.821521248855864e-17 
-0.001669582731928674 5.876962955535045e-16 -8.598671079902392e-17 
-0.001669582731928715 9.27566684051736e-16 1.9299876404788473e-17 
-0.0016695827319286446 1.124715658445953e-15 7.736579559079222e-17 
-0.0016695827319286002 1.08270027512459e-15 -1.124909441838144e-16 
-0.0016695827319288582 1.235262425860058e-15 -9.815260062324577e-17 
-0.0016695827319288788 1.7412850363888183e-15 0.0 
-0.0016695827319289543 -3.5643658365373965e-16 0.0 
-0.001669582731928975 -7.194410361922687e-17 0.0 
-0.0016695827319289122 -1.6455842385691076e-16 0.0 
-0.0016695827319289738 1.5714998507134515e-16 0.0 
-0.001669582731928987 5.017357014664751e-16 0.0 
-0.001669582731928877 6.122047992141998e-16 0.0 
-0.0016695827319287407 7.39165178103715e-16 0.0 
-0.0016695827319285685 1.1670290783880575e-15 0.0 
-0.0016695827319287235 1.0342484205933797e-15 0.0 
-0.0016695827319290104 1.3724900522216166e-15 0.0 
-0.0016695827319290132 1.631763696996616e-15 0.0 
-0.0015942008559940905 -5.372902580613079e-17 0.0 
-0.0015942008559941755 -2.5921984495908497e-16 0.0 
-0.0015942008559942473 2.1292239978479076e-16 0.0 
-0.0015942008559942473 4.4126297707522454e-16 0.0 
-0.0015942008559943037 4.590068325768202e-16 0.0 
-0.0015942008559942514 5.035085338235997e-16 0.0 
-0.0015942008559941786 7.858929300288404e-16 0.0 
-0.0015942008559940532 9.483599120470589e-16 0.0 
-0.001594200855994073 1.1144920378635333e-15 0.0 
-0.0015942008559940875 1.2598202571538701e-15 0.0 
-0.0015942008559941706 1.4844843046502793e-15 0.0 
-0.0015942008559942842 -1.0033089546899108e-16 0.0 
-0.0015942008559944102 -1.0805801070110256e-16 5.739403161140004e-17 
-0.0015942008559944416 2.5973996957447325e-16 7.567648951663307e-17 
-0.0015942008559943733 3.7259095868720685e-16 6.766459958828164e-18 
-0.0015942008559943063 4.39950420782444e-16 -1.1693283110689955e-17 
-0.0015942008559942942 5.386125182915234e-16 1.7816144681151235e-17 
-0.0015942008559943516 8.32931132134761e-16 1.703622932457612e-17 
-0.001594200855994402 9.37266815885198e-16 -5.811678777353915e-17 
-0.0015942008559944054 1.1412421662497746e-15 -6.705649634401624e-18 
-0.0015942008559944024 1.3061091980145483e-15 -2.121538225205256e-17 
-0.0015942008559943733 1.5783795010086982e-15 0.0 
-0.0015942008559945843 -2.074561427896627e-16 0.0 
-0.0015942008559945132 -2.4786049911218883e-17 6.347103856954295e-17 
-0.001594200855994599 2.3679962547086056e-16 2.5925009964595536e-17 
-0.0015942008559945383 3.276245598299507e-16 6.141891566272226e-17 
-0.0015942008559946049 4.236755075436784e-16 -2.4179032815968437e-17 
-0.0015942008559946203 5.737253719073099e-16 -2.3604995788762194e-17 
-0.0015942008559945728 7.775095418273121e-16 -1.1645427145263987e-16 
-0.0015942008559945544 9.404213139281626e-16 -1.157699839289714e-16 
-0.001594200855994582 1.0806572943805645e-15 1.9051457114390376e-17 
-0.001594200855994662 1.36399157340761e-15 7.32155598370095e-17 
-0.0015942008559947398 1.6754139339687255e-15 0.0 
-0.0015942008559948063 -2.2017768204365702e-16 0.0 
-0.001594200855994821 -1.012854985814984e-16 1.0227588553883843e-16 
-0.0015942008559946834 7.533549633597088e-17 1.4279197609658308e-16 
-0.001594200855994718 3.64036000240018e-16 1.0943895214897888e-16 
-0.0015942008559947686 4.079401123591515e-16 -3.118037171102104e-17 
-0.0015942008559947315 5.824312421225327e-16 1.0072474907462209e-17 
-0.0015942008559948347 8.320245595190583e-16 -7.839637494862043e-17 
-0.0015942008559948794 9.30663570933454e-16 -1.4544655174534172e-16 
-0.001594200855994788 1.1423856179528095e-15 -9.528588480659299e-17 
-0.0015942008559948352 1.3621856222805842e-15 -5.868883798498472e-17 
-0.0015942008559947582 1.5419993098142662e-15 0.0 
-0.0015942008559948879 -3.666524759473692e-16 0.0 
-0.0015942008559948404 -8.869341767475322e-17 9.47193833789651e-17 
-0.0015942008559949772 1.4893121227957842e-16 2.6331789899944148e-17 
-0.0015942008559949494 3.462275374140311e-16 3.507942227477728e-17 
-0.0015942008559949677 4.817634522648247e-16 4.8398906081169426e-17 
-0.0015942008559948749 5.804683783090696e-16 7.703748162744422e-18 
-0.0015942008559948558 8.396857953362543e-16 -7.396600268370974e-17 
-0.001594200855994845 9.868001940364472e-16 -9.225694754302507e-17 
-0.0015942008559949965 1.1555051439776077e-15 -1.56386356724544e-16 
-0.0015942008559950485 1.3745354080782578e-15 -7.983991527353653e-17 
-0.0015942008559949792 1.5495427935636261e-15 0.0 
-0.0015942008559952383 -3.1654157130270683e-16 0.0 
-0.0015942008559953192 -1.2101838239502087e-16 4.727201038229489e-17 
-0.001594200855995154 1.1084577300850048e-16 1.4980819590430354e-16 
-0.0015942008559951411 3.4254410530421986e-16 1.6340788398145915e-16 
-0.0015942008559952264 4.3614588996223476e-16 1.5276377991481217e-16 
-0.001594200855995231 6.029706032254843e-16 -8.7020772734981e-18 
-0.0015942008559952604 8.262193529650317e-16 -1.177894216036453e-16 
-0.001594200855995318 1.0350843237898174e-15 -2.0731972380504862e-16 
-0.001594200855995157 1.138310131360319e-15 -7.409136238275886e-17 
-0.0015942008559951535 1.3328582536868036e-15 -8.219548293967393e-17 
-0.0015942008559952012 1.5330509200921068e-15 0.0 
-0.0015942008559954287 -2.6065591326410805e-16 0.0 
-0.0015942008559954235 -1.652019877288875e-16 5.823568274690361e-17 
-0.0015942008559953495 2.8803370664909186e-17 1.008277296004205e-16 
-0.0015942008559952745 2.945262387714324e-16 9.742166703257633e-17 
-0.0015942008559953202 4.275724685962751e-16 9.892393939528381e-17 
-0.001594200855995211 5.732216505381802e-16 7.489581888082846e-17 
-0.0015942008559952155 8.316071765531527e-16 -8.555421251330473e-17 
-0.0015942008559952277 1.0298010129748999e-15 -1.876397795310495e-16 
-0.0015942008559954397 1.1150739450747052e-15 -7.406796334434495e-17 
-0.0015942008559953343 1.330466505380565e-15 -5.154528652193227e-17 
-0.0015942008559953853 1.5789576404648232e-15 0.0 
-0.0015942008559954803 -2.566310260176105e-16 0.0 
-0.0015942008559956015 -1.0142009667411492e-16 2.867769030374215e-17 
-0.0015942008559955286 -2.5434022510885483e-18 1.4077703253909156e-17 
-0.0015942008559955746 1.8763730974166755e-16 3.148828580436063e-17 
-0.0015942008559956151 3.9257223372249477e-16 4.9470201044121935e-17 
-0.0015942008559956414 6.195837759335358e-16 -3.8933928559368286e-17 
-0.001594200855995574 8.320290528376582e-16 -6.963147700331246e-17 
-0.0015942008559955896 1.0682690208887397e-15 -5.993909078448842e-19 
-0.0015942008559954664 1.112796231711032e-15 5.696991621072519e-19 
-0.0015942008559955353 1.30336671767599e-15 -1.3662627921079815e-16 
-0.0015942008559954853 1.6494183008106068e-15 0.0 
-0.0015942008559957808 -4.419781603915386e-16 0.0 
-0.0015942008559957663 -7.100024410131563e-17 2.2287649913128183e-17 
-0.001594200855995749 1.5835516116713157e-17 7.172039348975749e-17 
-0.001594200855995709 1.2469567330786158e-16 4.364286729924601e-17 
-0.0015942008559956154 3.44050696462827e-16 2.0973647001723817e-16 
-0.001594200855995539 6.80644616519846e-16 5.1193086807588007e-17 
-0.0015942008559957205 8.62313849537749e-16 -1.0835539588923192e-16 
-0.001594200855995628 9.071510270161058e-16 -1.6945149085483205e-17 
-0.0015942008559956646 1.1968042794672231e-15 4.494820536421894e-17 
-0.001594200855995643 1.240968575853478e-15 -2.022423325663578e-19 
-0.0015942008559957708 1.7413192377358457e-15 0.0 
-0.0015942008559960083 -3.72508526323714e-16 0.0 
-0.0015942008559960842 -1.9620738854392102e-16 5.895884467333057e-17 
-0.0015942008559960078 9.400159367790765e-18 1.2488411087260171e-16 
-0.0015942008559958686 5.787116724028804e-17 5.919907420323214e-18 
-0.0015942008559959103 3.925114433480913e-16 8.684317943749429e-18 
-0.001594200855995926 6.529419050758828e-16 -3.7621425547512545e-17 
-0.0015942008559958172 8.502111343975682e-16 -1.6215445786505633e-17 
-0.001594200855995875 9.3091152863237e-16 3.9568068869851617e-17 
-0.0015942008559959048 1.141264090409781e-15 1.8868657275450306e-17 
-0.0015942008559959404 1.3500447539965288e-15 -1.491343214439035e-17 
-0.0015942008559958751 1.6893405374654623e-15 0.0 
-0.0015942008559960245 -2.157984636666714e-16 0.0 
-0.0015942008559961893 -6.974633549479716e-17 0.0 
-0.0015942008559961026 -5.153032189961011e-17 0.0 
-0.00159420085599618 1.2370419474587125e-16 0.0 
-0.0015942008559961065 4.0801037197883823e-16 0.0 
-0.0015942008559960874 5.627794488767564e-16 0.0 
-0.0015942008559960558 7.823089242267111e-16 0.0 
-0.001594200855996251 1.0737635721341544e-15 0.0 
-0.0015942008559962015 1.2148064333068084e-15 0.0 
-0.0015942008559963385 1.3440814311261824e-15 0.0 
-0.001594200855996423 1.6316507851345346e-15 0.0 
-0.0015553805148927173 -3.3399427385750596e-16 0.0 
-0.0015553805148927238 -1.7816647989184605e-16 0.0 
-0.0015553805148926642 2.092258893490723e-16 0.0 
-0.0015553805148927095 2.8874358014654327e-16 0.0 
-0.0015553805148927275 5.031224557537636e-16 0.0 
-0.0015553805148926481 6.101401429784642e-16 0.0 
-0.0015553805148927694 7.554324368918538e-16 0.0 
-0.001555380514892755 1.0487247338582599e-15 0.0 
-0.0015553805148926906 1.1215492461951243e-15 0.0 
-0.0015553805148927965 1.2406830862810073e-15 0.0 
-0.0015553805148929764 1.47013994073659e-15 0.0 
-0.0015553805148931584 -5.053023309366856e-16 0.0 
-0.001555380514893051 -1.6865748705929908e-16 4.1302424098822455e-17 
-0.0015553805148929986 1.4025709447851987e-16 -1.26118956754575e-17 
-0.0015553805148929714 3.5835273363269515e-16 6.4146203096945e-17 
-0.0015553805148929812 4.2209254011026324e-16 -4.124898007451709e-17 
-0.0015553805148930053 5.888631537447523e-16 -3.588265096226675e-17 
-0.0015553805148928502 8.760617830480582e-16 3.8348275422698155e-17 
-0.0015553805148929452 1.0923556719646053e-15 9.65377511043609e-18 
-0.0015553805148929574 1.0882195345310396e-15 -1.083254291387376e-17 
-0.0015553805148929745 1.3380878025746917e-15 -5.501818471823722e-17 
-0.0015553805148929643 1.5855562358913842e-15 0.0 
-0.001555380514893167 -4.1352999592933045e-16 0.0 
-0.0015553805148931937 -2.0259926019322804e-16 8.405139398959058e-17 
-0.0015553805148932325 1.9406823641171556e-16 1.0375894754600223e-16 
-0.001555380514893123 3.1647422882253415e-16 3.591055753294074e-17 
-0.0015553805148931406 4.259101003917938e-16 -5.2699715024333826e-17 
-0.001555380514893185 6.314521621837769e-16 -9.520964375720718e-18 
-0.0015553805148932464 7.9760148430448275e-16 -4.6346185108399725e-17 
-0.001555380514893216 1.0003186047594713e-15 -1.0139819946552341e-16 
-0.0015553805148932544 1.1639488066459554e-15 -9.597058358911001e-18 
-0.0015553805148931983 1.401663002737143e-15 6.055431814600021e-17 
-0.0015553805148931798 1.6276495479306451e-15 0.0 
-0.001555380514893479 -4.499354123369973e-16 0.0 
-0.0015553805148934958 -1.2200203308124126e-16 2.7959681505095145e-17 
-0.0015553805148934051 1.1320806599243814e-16 6.57662340240081e-17 
-0.0015553805148933641 2.699197553175917e-16 1.2067932528669768e-16 
-0.0015553805148933017 4.1964068315005883e-16 5.345773245836638e-19 
-0.0015553805148932555 6.256777610778437e-16 -2.7824852608028384e-17 
-0.0015553805148931998 8.114125104208074e-16 -2.570228122893092e-17 
-0.0015553805148933897 1.0317397354437792e-15 -1.2874963541797725e-16 
-0.0015553805148934058 1.1694101256401419e-15 -1.2135542574660293e-16 
-0.0015553805148935244 1.4324400171947886e-15 -5.20940714535622e-18 
-0.001555380514893572 1.5409177007516072e-15 0.0 
-0.0015553805148935643 -3.629866052312357e-16 0.0 
-0.0015553805148936283 -1.3266631426978865e-16 3.3969547545552547e-17 
-0.0015553805148937395 1.474539467155609e-17 1.0702374378032214e-16 
-0.001555380514893664 2.526216456308428e-16 3.9159204739726727e-17 
-0.0015553805148936686 4.1769767936314824e-16 -4.0948803963836025e-17 
-0.0015553805148936046 5.662710071903489e-16 -3.1602545201341446e-17 
-0.0015553805148935897 8.192424184980753e-16 -2.3403058787281705e-17 
-0.0015553805148936191 1.0630132122207224e-15 -1.513914088390801e-16 
-0.0015553805148936237 1.2119230623447889e-15 -1.044071159494643e-16 
-0.001555380514893615 1.3996666114118192e-15 -4.378250701527729e-17 
-0.001555380514893534 1.5571944675521056e-15 0.0 
-0.0015553805148937959 -3.332687612722368e-16 0.0 
-0.001555380514893839 -9.510261013653698e-19 4.9858743940189646e-17 
-0.0015553805148937603 -1.8561593602687794e-17 2.032573745564425e-17 
-0.0015553805148937699 2.1131304643355952e-16 1.684969216738832e-16 
-0.0015553805148936532 4.790754015660057e-16 9.604984014136939e-17 
-0.001555380514893754 5.23150437212403e-16 1.810085304942853e-17 
-0.001555380514893781 8.38193410086637e-16 -9.54623203920125e-17 
-0.0015553805148938343 1.0214541428738849e-15 -8.150110230001404e-17 
-0.0015553805148937542 1.17762980710967e-15 -1.294603142644811e-16 
-0.001555380514893793 1.3224542917342192e-15 -5.598857773498223e-17 
-0.0015553805148936718 1.5584777953344731e-15 0.0 
-0.0015553805148941092 -2.5637509894959377e-16 0.0 
-0.0015553805148940073 -4.219939804104907e-18 2.0341034723233917e-17 
-0.0015553805148940886 1.0942042343904917e-16 6.002920579167531e-17 
-0.0015553805148940504 2.5544784446895435e-16 7.988973003491764e-17 
-0.0015553805148939448 4.373036489698983e-16 6.2556273428663954e-18 
-0.0015553805148939798 6.447284519459464e-16 8.60994964257447e-17 
-0.0015553805148940745 8.131787252662829e-16 -6.276842984721404e-17 
-0.0015553805148940001 9.510339213209025e-16 -1.4525863472033783e-16 
-0.0015553805148940333 1.061976706034792e-15 -5.4558349955651855e-17 
-0.001555380514894096 1.3344233846557633e-15 1.1465749628830358e-17 
-0.0015553805148939843 1.4182822962881107e-15 0.0 
-0.001555380514894319 -3.1185635817222177e-16 0.0 
-0.0015553805148941543 -6.37173752667329e-17 -3.684691700041491e-18 
-0.001555380514894052 1.0470468656477213e-16 1.997063717046279e-17 
-0.0015553805148940355 2.444308834319762e-16 5.292664513589528e-17 
-0.001555380514894055 3.611403432859275e-16 3.931343144993948e-17 
-0.0015553805148939709 7.111503554196132e-16 -4.633298771789913e-17 
-0.0015553805148940092 7.9396677617235395e-16 -4.1586089865739463e-17 
-0.0015553805148941034 9.132876741528063e-16 2.982759821655107e-17 
-0.0015553805148942027 1.210489375951774e-15 -5.720071361468043e-17 
-0.001555380514894215 1.331045391004339e-15 -1.2960028449232775e-16 
-0.001555380514894391 1.5448332522694644e-15 0.0 
-0.0015553805148944288 -3.0076397199928346e-16 0.0 
-0.0015553805148944486 -1.2901744139681692e-16 9.8171073080831e-18 
-0.0015553805148943772 1.7373332903760107e-17 2.037095049296977e-17 
-0.001555380514894355 2.6351349237556486e-16 6.37879260191376e-17 
-0.0015553805148943627 4.652243660521473e-16 9.826215611022234e-17 
-0.0015553805148942664 6.007866217875684e-16 3.571046600497777e-17 
-0.0015553805148943224 8.021954042278072e-16 -8.905595297538211e-17 
-0.0015553805148943382 1.0035472873641057e-15 -8.20148417304295e-17 
-0.0015553805148943991 1.2087474438134947e-15 4.01847472315545e-17 
-0.0015553805148943573 1.3781850509523073e-15 6.859355399462894e-17 
-0.0015553805148943766 1.6282421254561717e-15 0.0 
-0.0015553805148946643 -3.42034766800962e-16 0.0 
-0.0015553805148946487 -8.732978786933002e-17 6.61461037163532e-17 
-0.0015553805148945565 -7.43168668777457e-17 3.2284155818201793e-17 
-0.0015553805148943594 1.330018533912728e-16 1.4770540613393248e-17 
-0.0015553805148944104 4.937781922552731e-16 4.981740310166755e-18 
-0.001555380514894457 6.381847690727784e-16 9.114502239058044e-18 
-0.0015553805148945852 9.256485819917531e-16 -1.6669902709696217e-17 
-0.0015553805148946429 9.918768973316733e-16 6.037915554311858e-17 
-0.0015553805148945364 1.1105629886457304e-15 1.1490370848453246e-17 
-0.0015553805148946017 1.3690531327656168e-15 -1.566587114086509e-17 
-0.0015553805148944876 1.6292154559459347e-15 0.0 
-0.0015553805148947454 -3.4074402685253857e-16 0.0 
-0.0015553805148947526 -8.146064045753993e-17 0.0 
-0.0015553805148946754 -1.775286376069128e-16 0.0 
-0.001555380514894727 2.1989713404871227e-16 0.0 
-0.001555380514894717 4.317009427794197e-16 0.0 
-0.0015553805148946765 7.788434562618229e-16 0.0 
-0.001555380514894765 8.798491382322776e-16 0.0 
-0.0015553805148947049 9.941939272461524e-16 0.0 
-0.0015553805148947645 1.0763848681763175e-15 0.0 
-0.001555380514894794 1.3287338198736757e-15 0.0 
-0.0015553805148948142 1.627588115793627e-15 0.0 
-0.001434799141201688 -2.909383115597267e-16 0.0 
-0.001434799141201703 -1.4437037413223654e-16 0.0 
-0.0014347991412016674 1.6010061258740706e-16 0.0 
-0.0014347991412016828 2.8945109160497296e-16 0.0 
-0.0014347991412017225 4.758819935554407e-16 0.0 
-0.001434799141201718 5.75074722862827e-16 0.0 
-0.001434799141201753 8.718633639368869e-16 0.0 
-0.0014347991412016238 1.0626700937650475e-15 0.0 
-0.00143479914120168 1.1844485036906682e-15 0.0 
-0.0014347991412017268 1.3761725823458078e-15 0.0 
-0.0014347991412016876 1.6123099972386576e-15 0.0 
-0.0014347991412018803 -2.434359437984905e-16 0.0 
-0.0014347991412018573 -1.8907599767946478e-16 -4.5802668063264183e-17 
-0.0014347991412018229 1.5434916725945137e-16 3.5655378566404053e-17 
-0.0014347991412018703 2.9437273384576805e-16 2.0325413611232106e-17 
-0.0014347991412019098 4.818607268391424e-16 2.818859080916379e-17 
-0.0014347991412019445 6.100719801468709e-16 -2.5551827701801554e-17 
-0.0014347991412018944 8.308510465266072e-16 -2.681293317942406e-18 
-0.001434799141201917 1.0872011839151498e-15 2.95064667220839e-18 
-0.0014347991412018428 1.1860579659021857e-15 -3.152851505236459e-17 
-0.0014347991412018422 1.3938060624369933e-15 2.436807800985451e-17 
-0.0014347991412018352 1.5837774272690017e-15 0.0 
-0.0014347991412021473 -2.8644047485132855e-16 0.0 
-0.0014347991412021364 -1.668162076630475e-16 1.1084277744901621e-16 
-0.00143479914120217 1.8381990859564232e-16 5.679895939205041e-17 
-0.0014347991412021076 2.614126362340697e-16 -5.863460777289858e-17 
-0.001434799141202059 4.3215674458398695e-16 5.682166527397673e-17 
-0.0014347991412020373 6.705270745002905e-16 2.1892754488500844e-18 
-0.0014347991412021316 8.031632253926765e-16 -5.935932826701228e-17 
-0.001434799141202151 1.048614084770898e-15 -1.2153914330264977e-17 
-0.0014347991412021483 1.128178879631484e-15 -5.820567890386523e-17 
-0.0014347991412021158 1.3707090354604407e-15 -5.579903598254182e-17 
-0.0014347991412021052 1.6091217777538804e-15 0.0 
-0.0014347991412023188 -3.9320565559978207e-16 0.0 
-0.001434799141202318 -1.4011725848297847e-16 1.5180845444437072e-17 
-0.001434799141202266 1.103328213798181e-16 6.792848999348581e-17 
-0.001434799141202297 2.7925017205369536e-16 8.034271370394454e-17 
-0.001434799141202306 4.1462410430245095e-16 -5.332862327602471e-18 
-0.0014347991412022117 6.16042590954432e-16 -2.5832214269128125e-17 
-0.0014347991412021399 8.766086337077967e-16 -2.98513415326737e-17 
-0.0014347991412022242 1.0517415701815415e-15 -9.336198269502722e-17 
-0.0014347991412024012 1.1689092789418782e-15 -3.4566695649231327e-17 
-0.001434799141202349 1.2942326850118982e-15 8.449350825750539e-17 
-0.001434799141202301 1.5433713292683215e-15 0.0 
-0.0014347991412025582 -4.368730526991247e-16 0.0 
-0.0014347991412024619 -1.6751817413934545e-16 2.928874815892708e-17 
-0.0014347991412024437 1.2368191159305837e-16 7.723911689837662e-17 
-0.001434799141202371 2.72001783173485e-16 3.5723369522552113e-17 
-0.0014347991412024148 4.515278359763281e-16 -2.5724533729058198e-17 
-0.0014347991412024556 6.298327985267419e-16 -5.4890343357980756e-18 
-0.001434799141202508 8.154471659063028e-16 -5.572461676695221e-17 
-0.0014347991412025087 1.0242375275988146e-15 -6.50584064518634e-17 
-0.0014347991412024393 1.1829692760080046e-15 -1.139577625671511e-16 
-0.0014347991412025347 1.318665749956753e-15 -6.993235416581515e-17 
-0.0014347991412026263 1.5415548783620347e-15 0.0 
-0.0014347991412025328 -4.306421557304167e-16 0.0 
-0.0014347991412026683 -4.262446133571878e-17 -2.602647840047761e-17 
-0.0014347991412026982 6.284378547357744e-17 6.620242879036148e-17 
-0.0014347991412027306 2.6916587780298697e-16 5.1564322821175065e-17 
-0.0014347991412027223 4.151039187812169e-16 7.260581640964613e-17 
-0.0014347991412026278 6.469715951957497e-16 1.2297520639045977e-17 
-0.0014347991412025235 8.148146182989899e-16 -8.127456639245893e-17 
-0.0014347991412025733 1.0310014139635495e-15 -1.3876345983972623e-17 
-0.0014347991412027258 1.1827782199678549e-15 -4.845545568490576e-17 
-0.0014347991412027384 1.3485208159158972e-15 -5.537564084455455e-17 
-0.001434799141202691 1.5741415036619512e-15 0.0 
-0.0014347991412029283 -3.206712364000196e-16 0.0 
-0.00143479914120292 -9.678139772967424e-18 -3.2130525834839874e-17 
-0.0014347991412029032 5.023383598883306e-17 4.161049222157697e-17 
-0.001434799141202807 2.4168477646842512e-16 4.0525771350491117e-17 
-0.0014347991412028591 4.203899296291365e-16 2.9968072923744054e-17 
-0.00143479914120272 5.552467159384805e-16 1.8775453723124409e-19 
-0.0014347991412027809 7.890114967517698e-16 -1.414535846717459e-17 
-0.0014347991412028735 1.043591886398769e-15 -8.583446015916799e-17 
-0.0014347991412029402 1.1713126098343544e-15 -1.3369805064514587e-17 
-0.0014347991412028977 1.335987687457113e-15 -5.567961790085632e-18 
-0.0014347991412029877 1.614796487706473e-15 0.0 
-0.001434799141203107 -2.0405094003302133e-16 0.0 
-0.0014347991412031514 -7.277077549515611e-17 -6.986984490706239e-18 
-0.0014347991412030248 8.222329549499326e-17 3.3661325083534456e-17 
-0.0014347991412030907 2.204912212495696e-16 -1.3999902077966348e-17 
-0.001434799141203067 4.234850062262746e-16 2.042069198898075e-17 
-0.0014347991412031254 5.696467920475852e-16 -3.3657788740973125e-17 
-0.001434799141203094 7.806356637881008e-16 8.341536490548532e-18 
-0.001434799141202998 9.81553942178693e-16 -1.9642440234265492e-17 
-0.001434799141202963 1.1724179253860776e-15 -6.621856172814784e-17 
-0.0014347991412030853 1.3620701240872343e-15 -7.038174456969042e-17 
-0.0014347991412031315 1.5202760945972905e-15 0.0 
-0.001434799141203289 -2.0089294255601352e-16 0.0 
-0.0014347991412033258 -1.253946280261476e-16 3.9076698479841506e-17 
-0.0014347991412032828 2.9817965807391685e-17 1.7234848133786263e-17 
-0.0014347991412032462 2.3961090888594154e-16 5.284301341034991e-17 
-0.001434799141203164 4.0684505186866056e-16 6.135840775449164e-18 
-0.00143479914120311 5.882970061356722e-16 -3.7524371828411193e-17 
-0.0014347991412032102 7.907489363658947e-16 -7.628714676147159e-17 
-0.0014347991412032503 9.386604173154676e-16 -5.2817730858679406e-17 
-0.0014347991412033065 1.204977649135448e-15 7.469208965409081e-17 
-0.0014347991412031636 1.3223926802215294e-15 1.9807280232267698e-17 
-0.00143479914120314 1.4815403296137593e-15 0.0 
-0.001434799141203394 -2.375687373409354e-16 0.0 
-0.0014347991412033433 -1.7396950393861996e-16 5.770644959344263e-17 
-0.0014347991412033635 2.9206864736077304e-17 -2.197697426807722e-17 
-0.0014347991412034555 1.8877520151810827e-16 -2.524291020543368e-17 
-0.0014347991412034346 3.8648247383818224e-16 2.654604411716005e-17 
-0.0014347991412034281 6.478331161942444e-16 5.424241928900029e-18 
-0.0014347991412033529 8.196793133371942e-16 5.164706979832745e-17 
-0.0014347991412033752 9.051772965061709e-16 5.739832728317667e-17 
-0.0014347991412033746 1.1924454821988442e-15 -2.816814406953744e-17 
-0.0014347991412033965 1.3495282339780271e-15 -2.990269380781735e-17 
-0.0014347991412034218 1.5799435833759947e-15 0.0 
-0.001434799141203582 -2.2519090773969376e-16 0.0 
-0.0014347991412036643 -5.514362738045108e-17 0.0 
-0.0014347991412036393 4.247623959989473e-17 0.0 
-0.0014347991412036487 2.2010191553056277e-16 0.0 
-0.0014347991412035864 4.152620985076963e-16 0.0 
-0.0014347991412035931 5.723834909644617e-16 0.0 
-0.0014347991412035164 8.05970265368067e-16 0.0 
-0.0014347991412036684 9.856833919991962e-16 0.0 
-0.0014347991412036192 1.1952914329717436e-15 0.0 
-0.0014347991412036285 1.416184999887867e-15 0.0 
-0.0014347991412037443 1.6316346097414102e-15 0.0 
-0.0013138876928247758 -3.5451162906937075e-16 0.0 
-0.0013138876928247766 -9.526455757704318e-17 0.0 
-0.001313887692824675 1.0981283866065894e-16 0.0 
-0.0013138876928246133 2.2432688533743003e-16 0.0 
-0.0013138876928246877 4.4386841921357834e-16 0.0 
-0.001313887692824666 6.12157516209643e-16 0.0 
-0.0013138876928246877 8.410932820974782e-16 0.0 
-0.001313887692824653 1.060595909761556e-15 0.0 
-0.0013138876928246593 1.1783514510588186e-15 0.0 
-0.001313887692824752 1.3856862975715102e-15 0.0 
-0.0013138876928248903 1.404857907374131e-15 0.0 
-0.0013138876928249729 -4.592635474085078e-16 0.0 
-0.0013138876928250082 -1.5143794242259554e-16 1.4005114499812972e-17 
-0.0013138876928250358 6.692779574269225e-17 -6.935421999563097e-18 
-0.001313887692825009 2.755751772955037e-16 2.5780536949352447e-17 
-0.0013138876928249982 3.6881220266221773e-16 3.1468299041691933e-17 
-0.0013138876928249854 6.399284325860391e-16 -1.60872658961714e-17 
-0.0013138876928249581 9.234033248430671e-16 1.0478425115035527e-17 
-0.001313887692824985 1.0324285962897165e-15 -3.164085031435383e-17 
-0.001313887692825046 1.1566626991178646e-15 -1.1623029810348016e-17 
-0.0013138876928250238 1.438874490801963e-15 3.086452430065407e-17 
-0.0013138876928249824 1.5270575180668199e-15 0.0 
-0.0013138876928252415 -4.0579879976721447e-16 0.0 
-0.0013138876928251776 -8.995894373912137e-17 4.3737654651177775e-17 
-0.0013138876928251494 6.257103389762633e-17 5.790872754079729e-17 
-0.0013138876928250752 2.1363321483480887e-16 -1.0712407444028512e-17 
-0.0013138876928250839 4.1294303654006e-16 -1.6858943137564003e-17 
-0.0013138876928251123 6.68020091241906e-16 1.2876793317851436e-17 
-0.0013138876928251054 9.142903932191442e-16 -2.5507894037792033e-17 
-0.001313887692825164 1.0305026778250367e-15 -2.4694282388708252e-17 
-0.0013138876928252032 1.1611677445285415e-15 -3.123795863908166e-17 
-0.0013138876928251975 1.4281074259009761e-15 -1.797256736732458e-17 
-0.0013138876928252621 1.5805009815113738e-15 0.0 
-0.001313887692825314 -3.9718244124474227e-16 0.0 
-0.0013138876928253248 -1.6432544475310553e-16 5.984449740412824e-17 
-0.0013138876928252214 4.655974862996669e-17 6.91293825076155e-17 
-0.001313887692825237 2.482131664648275e-16 -2.1537877709926987e-17 
-0.0013138876928252621 4.2017215901507234e-16 3.074659253633798e-17 
-0.0013138876928252756 6.897533562772363e-16 -5.05060226592862e-17 
-0.0013138876928252712 9.202609268547243e-16 -1.2885843503004337e-17 
-0.001313887692825305 1.044917640993945e-15 -3.791158291539545e-17 
-0.0013138876928253406 1.2132718447779926e-15 -2.2859727306522446e-17 
-0.001313887692825375 1.3561517728442684e-15 6.366318640165539e-17 
-0.001313887692825252 1.4981853449308022e-15 0.0 
-0.0013138876928256002 -4.354220395737748e-16 0.0 
-0.0013138876928256596 -7.86390060064224e-17 -7.021553352058079e-17 
-0.0013138876928257184 3.899260631983159e-17 1.408828275163809e-17 
-0.0013138876928256093 2.7611126128335855e-16 6.322093487940758e-17 
-0.0013138876928256082 4.2906854877562083e-16 -7.111049708235861e-18 
-0.0013138876928254933 6.045713793280247e-16 -8.664460326283488e-19 
-0.0013138876928254623 8.542666941070744e-16 -2.5388018620308242e-17 
-0.0013138876928254423 1.0791308481682576e-15 -6.014381413974127e-17 
-0.0013138876928255583 1.2369568366617218e-15 -4.0523262367513826e-17 
-0.0013138876928256756 1.3355183170477111e-15 -6.72978812670746e-17 
-0.0013138876928257 1.5530586285682564e-15 0.0 
-0.0013138876928258535 -2.526852339363667e-16 0.0 
-0.0013138876928258244 -1.1559315895719924e-16 3.146899506741575e-17 
-0.001313887692825763 9.156804400532304e-17 3.078910096252086e-17 
-0.0013138876928258027 2.473369236224447e-16 -1.7208679940286404e-17 
-0.001313887692825717 4.0907657373956693e-16 7.938841052858719e-17 
-0.001313887692825807 5.924427701702461e-16 2.0786493127294135e-17 
-0.0013138876928257789 8.326249286288732e-16 -8.110773231873231e-17 
-0.0013138876928257808 1.0541201855304198e-15 -2.2677655741306342e-17 
-0.0013138876928257433 1.246889310584832e-15 -1.0673862451699875e-17 
-0.0013138876928257784 1.3535118014107472e-15 -1.678520781380221e-17 
-0.0013138876928256815 1.4966157937629675e-15 0.0 
-0.001313887692825947 -2.3437823073019366e-16 0.0 
-0.0013138876928259727 -1.1511379134760617e-16 -2.0650569267750406e-17 
-0.0013138876928259987 1.1568494696111216e-16 -1.79588456587939e-17 
-0.0013138876928259248 2.0487912571848583e-16 5.4003574333757717e-17 
-0.0013138876928259172 4.620084460143078e-16 -2.2591724979854192e-17 
-0.0013138876928258934 6.314313815144183e-16 3.974754428009064e-17 
-0.001313887692825959 7.749315687118266e-16 2.2182784698587854e-17 
-0.0013138876928259265 1.0239779206824794e-15 1.8542091387292945e-18 
-0.0013138876928259623 1.2517349831090458e-15 -3.1211201936462586e-17 
-0.0013138876928260085 1.35748487452636e-15 3.439436209973539e-17 
-0.0013138876928260534 1.4586457033107263e-15 0.0 
-0.0013138876928261575 -2.1079580318607377e-16 0.0 
-0.0013138876928261236 -1.0055242897210486e-16 3.4119351016499927e-17 
-0.0013138876928260957 5.615213861372212e-17 -4.0030900567136614e-17 
-0.00131388769282608 2.2502179442180655e-16 4.023333268026456e-17 
-0.0013138876928261041 3.9949140868376803e-16 1.0057938736266122e-18 
-0.0013138876928260382 6.492355586847732e-16 6.635143577563176e-18 
-0.0013138876928260662 8.048215489853995e-16 -5.4591008402729335e-17 
-0.0013138876928261356 1.0225791350222878e-15 -6.570943044710715e-17 
-0.001313887692826139 1.1982460211992347e-15 5.103967285371561e-18 
-0.001313887692826096 1.3718706580870157e-15 -2.7823455000367556e-17 
-0.0013138876928261735 1.5750920538532165e-15 0.0 
-0.0013138876928263754 -2.4708742212329753e-16 0.0 
-0.0013138876928263758 -1.1948449008597443e-16 1.6910884280489146e-17 
-0.0013138876928263329 2.915237489068253e-18 3.3846847149329004e-17 
-0.0013138876928262672 2.11802514533386e-16 2.0899340016971464e-17 
-0.0013138876928262776 4.524601766352368e-16 1.853029659766756e-17 
-0.0013138876928262646 6.257044889665048e-16 -6.788844219121068e-17 
-0.0013138876928263407 7.981586210500074e-16 -1.2143369860732674e-17 
-0.0013138876928263296 1.0255358449372752e-15 1.9761093995527462e-17 
-0.0013138876928263108 1.1500872122439762e-15 -8.178122259553917e-18 
-0.001313887692826416 1.4113569324333336e-15 4.8225052855428935e-18 
-0.001313887692826314 1.5867671722467704e-15 0.0 
-0.0013138876928264658 -2.833505385702164e-16 0.0 
-0.0013138876928264723 -1.1068229131725208e-16 -1.2911788884687718e-17 
-0.0013138876928264697 -1.519029969887429e-17 -1.6484624047087955e-17 
-0.0013138876928264953 1.415234004727947e-16 1.345406821701548e-17 
-0.0013138876928265614 4.412994362726183e-16 1.5630507689383988e-18 
-0.00131388769282647 5.820869952292903e-16 1.3623941691053273e-17 
-0.001313887692826493 8.314921576492506e-16 5.556275900428457e-17 
-0.001313887692826468 1.058726720318729e-15 -4.0589922273263724e-17 
-0.0013138876928264827 1.102964339781391e-15 -1.2207905770344189e-17 
-0.0013138876928265142 1.420815037626331e-15 2.9496149648196013e-18 
-0.0013138876928264335 1.5898536690588697e-15 0.0 
-0.0013138876928265129 -1.3733764195633295e-16 0.0 
-0.001313887692826629 -1.5503607507361186e-16 0.0 
-0.0013138876928267004 1.3069815727750723e-17 0.0 
-0.0013138876928267553 2.493838937853221e-16 0.0 
-0.0013138876928267024 3.8930821637396326e-16 0.0 
-0.0013138876928266892 5.654352680686162e-16 0.0 
-0.001313887692826625 8.049209216313643e-16 0.0 
-0.0013138876928266096 1.0612501805893077e-15 0.0 
-0.001313887692826659 1.1490883946523084e-15 0.0 
-0.001313887692826652 1.363264852005676e-15 0.0 
-0.0013138876928266237 1.560986444027576e-15 0.0 
-0.0014044936585661516 -3.5243317596814706e-16 0.0 
-0.0014044936585662251 -1.2015795520545487e-16 0.0 
-0.001404493658566236 9.662958637222333e-17 0.0 
-0.0014044936585662264 2.812352074372492e-16 0.0 
-0.0014044936585662895 4.741851850769075e-16 0.0 
-0.0014044936585662106 6.829332151622855e-16 0.0 
-0.0014044936585662926 9.042115427526521e-16 0.0 
-0.0014044936585662514 1.0284360448639664e-15 0.0 
-0.0014044936585663889 1.175151241885565e-15 0.0 
-0.0014044936585662785 1.4656061025843755e-15 0.0 
-0.0014044936585662614 1.5654901477871975e-15 0.0 
-0.0014044936585664801 -2.760808744063749e-16 0.0 
-0.0014044936585664706 -1.485183731271183e-16 0.0 
-0.0014044936585664114 9.126537237063242e-17 0.0 
-0.0014044936585663683 2.5181088996701243e-16 0.0 
-0.0014044936585663238 4.650382880974747e-16 0.0 
-0.001404493658566401 6.835770408276248e-16 0.0 
-0.001404493658566377 8.8602651687559545e-16 0.0 
-0.001404493658566445 1.117866433836985e-15 0.0 
-0.0014044936585664298 1.2395168826830037e-15 0.0 
-0.0014044936585665105 1.384997145115949e-15 0.0 
-0.0014044936585664617 1.541492972099063e-15 0.0 
-0.0014044936585666374 -3.30689756725087e-16 0.0 
-0.0014044936585666174 -1.4626412907353637e-16 0.0 
-0.0014044936585665834 4.015698951239081e-17 0.0 
-0.0014044936585666226 2.9309255487702786e-16 0.0 
-0.001404493658566581 4.780752716797818e-16 0.0 
-0.0014044936585666024 6.681634367961279e-16 0.0 
-0.0014044936585666558 9.209003435752286e-16 0.0 
-0.0014044936585666807 1.0299485334407848e-15 0.0 
-0.0014044936585666126 1.2232784506416923e-15 0.0 
-0.001404493658566625 1.3839314976469316e-15 0.0 
-0.0014044936585666556 1.5381154134281454e-15 0.0 
-0.0014044936585668132 -3.8528164795272567e-16 0.0 
-0.0014044936585668128 -1.135789182425558e-16 0.0 
-0.0014044936585668462 6.335679938528358e-17 0.0 
-0.0014044936585667267 2.393306288675324e-16 0.0 
-0.0014044936585667627 4.55033888029019e-16 0.0 
-0.0014044936585667377 6.804194894933895e-16 0.0 
-0.001404493658566759 8.93829704914969e-16 0.0 
-0.0014044936585668143 1.0782418095046297e-15 0.0 
-0.0014044936585668494 1.1902301030757077e-15 0.0 
-0.0014044936585668167 1.3855085499697422e-15 0.0 
-0.0014044936585668184 1.6343039620572359e-15 0.0 
-0.0014044936585670353 -2.949046757924909e-16 0.0 
-0.001404493658567 -1.477629354431136e-16 0.0 
-0.001404493658566975 4.2563523625849744e-17 0.0 
-0.0014044936585669982 3.034770877771613e-16 0.0 
-0.0014044936585669702 4.0107691800010213e-16 0.0 
-0.00140449365856704 6.44271680165787e-16 0.0 
-0.00140449365856698 8.905890265227417e-16 0.0 
-0.0014044936585669943 1.0023340980915843e-15 0.0 
-0.0014044936585670467 1.227734011843675e-15 0.0 
-0.0014044936585670062 1.3532015261813055e-15 0.0 
-0.0014044936585670689 1.5593030216765765e-15 0.0 
-0.0014044936585671935 -3.997291063833624e-16 0.0 
-0.0014044936585671988 -8.498226126793544e-17 0.0 
-0.0014044936585673117 6.838979492598471e-17 0.0 
-0.0014044936585672293 2.2493118636077177e-16 0.0 
-0.0014044936585672098 4.816835595981074e-16 0.0 
-0.0014044936585670769 6.042872398159931e-16 0.0 
-0.0014044936585671517 8.098316987635521e-16 0.0 
-0.001404493658567206 1.0805072542164118e-15 0.0 
-0.0014044936585671979 1.1515918272185452e-15 0.0 
-0.0014044936585672577 1.347051178619668e-15 0.0 
-0.0014044936585672534 1.5444702521558042e-15 0.0 
-0.001404493658567366 -2.872925576196299e-16 0.0 
-0.0014044936585674705 -1.0744707083139255e-16 0.0 
-0.0014044936585674436 4.0334216717198365e-17 0.0 
-0.0014044936585673956 2.256868322158987e-16 0.0 
-0.001404493658567405 3.8557352111626133e-16 0.0 
-0.001404493658567396 6.370257250031332e-16 0.0 
-0.0014044936585673943 8.250570790365297e-16 0.0 
-0.001404493658567425 9.902675167613054e-16 0.0 
-0.0014044936585674264 1.2209337786126223e-15 0.0 
-0.0014044936585674247 1.378266764042131e-15 0.0 
-0.0014044936585674486 1.5576509149335576e-15 0.0 
-0.0014044936585676075 -2.6959341211302604e-16 0.0 
-0.0014044936585676253 -1.6964876804693265e-16 0.0 
-0.0014044936585676602 3.206348084507648e-17 0.0 
-0.0014044936585676268 1.7968498446112686e-16 0.0 
-0.0014044936585675797 3.747563126148484e-16 0.0 
-0.0014044936585675622 6.363362548451631e-16 0.0 
-0.001404493658567516 8.4997054611288e-16 0.0 
-0.0014044936585675943 1.004982044909476e-15 0.0 
-0.0014044936585676036 1.2165005282013378e-15 0.0 
-0.001404493658567597 1.411434484020117e-15 0.0 
-0.0014044936585675565 1.479174478504434e-15 0.0 
-0.0014044936585677235 -2.63514629090035e-16 0.0 
-0.0014044936585678137 -1.0242264786373245e-16 0.0 
-0.0014044936585677669 4.2306166396035025e-17 0.0 
-0.0014044936585677422 1.5107879575987586e-16 0.0 
-0.001404493658567705 3.8386159400321636e-16 0.0 
-0.0014044936585677755 5.587296160751886e-16 0.0 
-0.0014044936585678037 7.848169853881854e-16 0.0 
-0.0014044936585677576 1.0729222923647856e-15 0.0 
-0.0014044936585677847 1.1984073155334735e-15 0.0 
-0.0014044936585677137 1.3570738787848815e-15 0.0 
-0.0014044936585677768 1.5928675087285543e-15 0.0 
-0.001404493658567982 -2.218879752665161e-16 0.0 
-0.0014044936585679386 -1.0980324318941947e-16 0.0 
-0.001404493658567973 2.7581010300225327e-17 0.0 
-0.0014044936585679844 1.737780821765804e-16 0.0 
-0.0014044936585679226 3.290426891910886e-16 0.0 
-0.0014044936585679273 5.724756283743011e-16 0.0 
-0.0014044936585679059 8.305230571844434e-16 0.0 
-0.001404493658567927 9.857469286208785e-16 0.0 
-0.0014044936585678944 1.2233736247940242e-15 0.0 
-0.0014044936585679824 1.3955957337073479e-15 0.0 
-0.001404493658567897 1.5366667610462841e-15 0.0 
-0.001404493658568044 -2.8697308300489424e-16 0.0 
-0.0014044936585681008 -8.333485568966656e-17 0.0 
-0.0014044936585680256 3.073641470433821e-17 0.0 
-0.0014044936585681513 1.641064922489376e-16 0.0 
-0.0014044936585681184 3.3684509803956812e-16 0.0 
-0.0014044936585681097 6.020293666494727e-16 0.0 
-0.0014044936585681641 8.2894297491635715e-16 0.0 
-0.0014044936585681674 1.0589129276117184e-15 0.0 
-0.0014044936585680785 1.1924572560933728e-15 0.0 
-0.0014044936585680516 1.465896788618155e-15 0.0 
-0.0014044936585681162 1.5204521210459662e-15 0.0 
CELL_DATA 500 
TENSORS strain float 
LOOKUP_TABLE default 
-3.224823836786572e-18 -1.0569945642996683e-17 3.7690937966358134e-06 
-1.0569945642996683e-17 6.971298915801812e-20 7.819947161129114e-18 
3.7690937966358134e-06 7.819947161129114e-18 3.126152426167782e-19 
-3.110304982317791e-18 1.460321084681097e-18 3.7690937966337594e-06 
1.460321084681097e-18 3.4428618005250374e-18 6.033035591402198e-18 
3.7690937966337594e-06 6.033035591402198e-18 4.848736773806734e-19 
1.0164395367051604e-20 5.79626903788269e-19 3.7690937966349634e-06 
5.79626903788269e-19 1.0829672319663336e-18 6.0356607716474014e-18 
3.7690937966349634e-06 6.0356607716474014e-18 -9.394271022017329e-19 
2.612927235690066e-18 -5.9125305172888995e-18 3.769093796633606e-06 
-5.9125305172888995e-18 -6.945611413538321e-19 6.263300601137508e-19 
3.769093796633606e-06 6.263300601137508e-19 -1.5480831816104225e-18 
2.249041881549618e-18 1.8098197863884728e-19 3.7690937966312953e-06 
1.8098197863884728e-19 -1.498127395666979e-18 -2.285784334015113e-18 
3.7690937966312953e-06 -2.285784334015113e-18 3.367713613082113e-19 
8.300922883092143e-19 8.836984825558762e-18 3.7690937966309464e-06 
8.836984825558762e-18 1.8391078354712974e-18 -3.583275294830062e-18 
3.7690937966309464e-06 -3.583275294830062e-18 1.2571837643808307e-18 
-2.3974420539085714e-18 -4.130899960251267e-18 3.7690937966331656e-06 
-4.130899960251267e-18 2.8498869012065515e-18 -3.0569354221831032e-18 
3.7690937966331656e-06 -3.0569354221831032e-18 4.379589848361771e-19 
2.242943244329381e-19 -6.98143935563918e-18 3.7690937966386696e-06 
-6.98143935563918e-18 6.542226118967907e-19 -2.892741093755419e-20 
3.7690937966386696e-06 -2.892741093755419e-20 4.931569768434096e-19 
-9.1411795667684e-19 -2.9703528389434785e-18 3.769093796637786e-06 
-2.9703528389434785e-18 1.041658719582794e-18 2.677874396039969e-19 
3.769093796637786e-06 2.677874396039969e-19 7.279908524711537e-19 
-2.1169047417779473e-18 -1.672196880371498e-18 3.7690937966399215e-06 
-1.672196880371498e-18 4.4290843983565724e-18 8.745727482561122e-19 
3.7690937966399215e-06 8.745727482561122e-19 1.8877810203609628e-19 
-1.6249480060126495e-18 -1.1030655657814225e-17 3.769093796647208e-06 
-1.1030655657814225e-17 2.3472398439387063e-18 6.3416910020658485e-18 
3.769093796647208e-06 6.3416910020658485e-18 7.338903890938013e-19 
-6.1257422745430985e-19 3.073006391965823e-18 3.769093796644477e-06 
3.073006391965823e-18 1.480155239069306e-18 5.240362766004419e-18 
3.769093796644477e-06 5.240362766004419e-18 -6.365725067543377e-19 
3.3102047578698053e-18 1.396285016885718e-18 3.7690937966387433e-06 
1.396285016885718e-18 -9.981946326579754e-19 8.1876165484370995e-19 
3.7690937966387433e-06 8.1876165484370995e-19 -1.8687339111800817e-18 
-1.7143946852427085e-19 -1.1162451802453305e-17 3.76909379663741e-06 
-1.1162451802453305e-17 -1.594168746891601e-18 -3.808533564427694e-18 
3.76909379663741e-06 -3.808533564427694e-18 -4.675613602428419e-19 
2.1114837309155193e-18 -1.2188261048561615e-17 3.7690937966384625e-06 
-1.2188261048561615e-17 2.1868502539469233e-19 -1.510541290989113e-18 
3.7690937966384625e-06 -1.510541290989113e-18 8.859074437938007e-19 
3.869246503057653e-19 -4.7756598666952515e-18 3.769093796635287e-06 
-4.7756598666952515e-18 -1.6283823184768008e-18 -3.517603023281808e-18 
3.769093796635287e-06 -3.517603023281808e-18 -2.0311062966712868e-19 
-2.1921212674941293e-18 -8.572504994484824e-18 3.769093796634136e-06 
-8.572504994484824e-18 -1.8007661134880837e-18 -5.30860826484189e-18 
3.769093796634136e-06 -5.30860826484189e-18 -1.6431991106538887e-18 
-2.32629128633921e-18 -6.426592265382621e-18 3.7690937966421873e-06 
-6.426592265382621e-18 8.130521330015645e-19 -9.43167362471553e-19 
3.7690937966421873e-06 -9.43167362471553e-19 7.052612971517615e-19 
9.419006373467727e-20 -2.452921671240772e-18 3.7690937966404577e-06 
-2.452921671240772e-18 1.7030988292422166e-18 3.1115574706246445e-18 
3.7690937966404577e-06 3.1115574706246445e-18 2.056586314944795e-18 
-2.6495190590114453e-19 -2.5095678008957476e-18 3.769093796635429e-06 
-2.5095678008957476e-18 1.7363017797983957e-18 4.7777682985309754e-18 
3.769093796635429e-06 4.7777682985309754e-18 7.664343255109738e-19 
2.0891220611080064e-18 5.7125910637421e-18 3.7690937966475363e-06 
5.7125910637421e-18 -2.6260722203443477e-18 4.8188473548279376e-18 
3.7690937966475363e-06 4.8188473548279376e-18 7.442253593601118e-19 
2.3954091748351614e-18 5.9733595208823876e-18 3.769093796644507e-06 
5.9733595208823876e-18 -3.0429508600085527e-18 4.081550340523482e-18 
3.769093796644507e-06 4.081550340523482e-18 -5.847460689585363e-19 
-5.929230630780102e-19 4.9514432105700416e-18 3.7690937966406423e-06 
4.9514432105700416e-18 -2.3344521631920542e-18 2.2269174737331632e-18 
3.7690937966406423e-06 2.2269174737331632e-18 -7.483374782553286e-19 
-2.3086730010363213e-18 -7.488139783124982e-18 3.769093796638836e-06 
-7.488139783124982e-18 1.1886925775575029e-18 5.624497914946028e-19 
3.769093796638836e-06 5.624497914946028e-19 -2.1869042282235904e-19 
1.5138172833328858e-18 -6.596230272080966e-19 3.769093796640938e-06 
-6.596230272080966e-19 7.747007846328552e-20 1.7774327441629682e-18 
3.769093796640938e-06 1.7774327441629682e-18 3.629368174050944e-20 
2.0396553369883568e-19 5.378845570905369e-18 3.7690937966359756e-06 
5.378845570905369e-18 2.67086813756762e-19 -6.80447399472918e-19 
3.7690937966359756e-06 -6.80447399472918e-19 1.2505192595343463e-19 
-1.2021091587433029e-18 -2.920169149242895e-18 3.76909379663697e-06 
-2.920169149242895e-18 6.308808475894718e-19 -3.877622483357069e-18 
3.76909379663697e-06 -3.877622483357069e-18 -2.1421535855713127e-18 
2.188733135705109e-19 -6.911637299050638e-19 3.769093796641921e-06 
-6.911637299050638e-19 1.4610504819889437e-18 -5.686238741035966e-18 
3.769093796641921e-06 -5.686238741035966e-18 -3.2731559183000565e-19 
1.4182719668826006e-18 6.031172705343354e-18 3.76909379664061e-06 
6.031172705343354e-18 -3.430664560744147e-19 -3.200118971249429e-18 
3.76909379664061e-06 -3.200118971249429e-18 4.791917883620191e-19 
-1.2095630486791409e-18 8.967602540501428e-18 3.7690937966322114e-06 
8.967602540501428e-18 -2.007779371682334e-18 2.0525388645236704e-18 
3.7690937966322114e-06 2.0525388645236704e-18 -6.250800767065341e-19 
4.580754178751258e-19 2.0547524893306367e-18 3.7690937966459515e-06 
2.0547524893306367e-18 -2.1847934579898436e-18 2.0270128640187278e-18 
3.7690937966459515e-06 2.0270128640187278e-18 1.4136494100554006e-18 
-5.109302737837938e-19 -3.8408947155087556e-18 3.769093796643084e-06 
-3.8408947155087556e-18 2.047860064838987e-20 -3.3248278455638813e-18 
3.769093796643084e-06 -3.3248278455638813e-18 2.3737899147966677e-18 
-5.963111948670244e-20 2.2120375134620185e-19 3.7690937966452223e-06 
2.2120375134620185e-19 5.912628952550802e-20 -4.481307501148541e-18 
3.7690937966452223e-06 -4.481307501148541e-18 -1.685382077115044e-19 
8.836247705756863e-19 -3.098131897308988e-18 3.7690937966376295e-06 
-3.098131897308988e-18 -7.252232388258569e-19 -1.825696851588781e-18 
3.7690937966376295e-06 -1.825696851588781e-18 -2.03118193378537e-18 
9.432558900623892e-19 -2.5080523807885112e-18 3.7690937966394082e-06 
-2.5080523807885112e-18 1.084806839117635e-18 1.874490248987052e-18 
3.7690937966394082e-06 1.874490248987052e-18 -4.62863447895659e-19 
-2.188733135705109e-19 4.2466731758031855e-18 3.769093796637347e-06 
4.2466731758031855e-18 -2.2606988152719437e-19 5.050265928216994e-18 
3.769093796637347e-06 5.050265928216994e-18 4.2574154989894313e-19 
-2.6393546636443995e-18 2.132670469632694e-18 3.7690937966382287e-06 
2.132670469632694e-18 3.556825345387691e-19 3.068594738103474e-19 
3.7690937966382287e-06 3.068594738103474e-19 6.719708208707938e-19 
1.3647394846161286e-18 -1.6110672059051882e-18 3.769093796639888e-06 
-1.6110672059051882e-18 -4.92170553861429e-19 -3.1760396216616385e-18 
3.769093796639888e-06 -3.1760396216616385e-18 1.1238011889509075e-18 
1.3044307387716233e-18 -2.5211580532154086e-18 3.7690937966382677e-06 
-2.5211580532154086e-18 1.5500630146492028e-18 -8.256792213959612e-19 
3.7690937966382677e-06 -8.256792213959612e-19 -1.2236959231326177e-18 
2.4157379655692646e-18 1.2360122850724394e-18 3.76909379663261e-06 
1.2360122850724394e-18 2.814862584256265e-18 -1.3931310344198621e-18 
3.76909379663261e-06 -1.3931310344198621e-18 -1.6616280676747357e-18 
-8.721051224930276e-19 4.900523638657184e-18 3.7690937966383986e-06 
4.900523638657184e-18 1.8119675252585386e-18 -1.6611781965758854e-19 
3.7690937966383986e-06 -1.6611781965758854e-19 1.6154128973072397e-18 
-3.413203964255929e-18 3.172057211151543e-18 3.7690937966412615e-06 
3.172057211151543e-18 3.102660914604966e-19 3.2669663870640472e-18 
3.7690937966412615e-06 3.2669663870640472e-18 3.4476082145275007e-18 
1.7320129705455935e-18 2.0518468314837533e-18 3.7690937966490568e-06 
2.0518468314837533e-18 -1.6255154566675528e-18 8.073463311479683e-18 
3.7690937966490568e-06 8.073463311479683e-18 -8.017994535474385e-19 
1.147221423761224e-18 -7.672145503440203e-18 3.7690937966360137e-06 
-7.672145503440203e-18 -1.7067670065318226e-18 7.192092216829746e-18 
3.7690937966360137e-06 7.192092216829746e-18 -1.6278088904166775e-18 
-1.3071412442028354e-18 -8.52097291806656e-18 3.769093796634646e-06 
-8.52097291806656e-18 -1.0396984435232387e-18 2.302316649320802e-18 
3.769093796634646e-06 2.302316649320802e-18 1.6771853647642607e-18 
-8.463553208964975e-19 -4.743458586141813e-18 3.7690937966408486e-06 
-4.743458586141813e-18 1.1105978521014635e-18 -1.2729548347707924e-18 
3.7690937966408486e-06 -1.2729548347707924e-18 -8.143862210813755e-19 
1.904130065427661e-19 -7.254885898471138e-18 3.7690937966386514e-06 
-7.254885898471138e-18 6.372891128944662e-19 2.551715924632665e-19 
3.7690937966386514e-06 2.551715924632665e-19 -1.628654976820021e-18 
7.806255641895627e-19 -6.37727754380885e-18 3.769093796641807e-06 
-6.37727754380885e-18 3.815080762382687e-19 3.940576842200663e-18 
3.769093796641807e-06 3.940576842200663e-18 4.1033803064873913e-19 
-4.479110225080734e-19 2.1620478078565856e-18 3.7690937966406512e-06 
2.1620478078565856e-18 -1.7228567547247563e-18 6.497800357117324e-19 
3.7690937966406512e-06 6.497800357117324e-19 1.6435644274134779e-18 
3.6253010142484055e-18 -3.309635562330705e-18 3.7690937966407626e-06 
-3.309635562330705e-18 -1.58171164410351e-18 -4.377184319648646e-18 
3.7690937966407626e-06 -4.377184319648646e-18 1.0899571254393323e-18 
-5.109302737837938e-19 -1.629699522081708e-18 3.7690937966333884e-06 
-1.629699522081708e-18 -9.213255163047632e-21 1.8143762330719993e-18 
3.7690937966333884e-06 1.8143762330719993e-18 -1.102330469832463e-18 
-1.7286248387565755e-18 -3.944345213436658e-18 3.769093796637831e-06 
-3.944345213436658e-18 -1.2818926489926606e-18 -9.223081105418268e-20 
3.769093796637831e-06 -9.223081105418268e-20 -4.417667646420477e-19 
2.2524300133386353e-18 4.1222767045115494e-18 3.769093796645698e-06 
4.1222767045115494e-18 -1.5520112143100578e-18 -2.717330834800772e-18 
3.769093796645698e-06 -2.717330834800772e-18 -5.040646701730285e-19 
1.3152727604964775e-18 3.2130906869602563e-18 3.7690937966370213e-06 
3.2130906869602563e-18 -2.3806010960134916e-19 -3.674521589638686e-18 
3.7690937966370213e-06 -3.674521589638686e-18 -6.043988732638127e-19 
-1.8153610125554163e-18 5.864459834284227e-18 3.7690937966336475e-06 
5.864459834284227e-18 1.1895087969640525e-18 2.3474491068859044e-18 
3.7690937966336475e-06 2.3474491068859044e-18 1.6457298668381515e-18 
-2.6894990141218543e-18 9.628841501026366e-18 3.7690937966388754e-06 
9.628841501026366e-18 -3.291141302245883e-19 2.512827898714585e-18 
3.7690937966388754e-06 2.512827898714585e-18 1.6464190379747744e-18 
2.368981746880827e-18 6.1428796625895095e-18 3.7690937966408092e-06 
6.1428796625895095e-18 -1.5072798962969546e-18 1.112533544207306e-18 
3.7690937966408092e-06 1.112533544207306e-18 -1.6621126250685292e-18 
2.764715539838037e-19 2.0012063725524215e-18 3.769093796640462e-06 
2.0012063725524215e-18 -1.0179442204721653e-18 2.1199035590436045e-18 
3.769093796640462e-06 2.1199035590436045e-18 -1.5887422533148458e-18 
-1.0205052948519808e-18 2.0072996193498983e-18 3.76909379663924e-06 
2.0072996193498983e-18 1.0599565191154766e-19 3.6230295221472685e-18 
3.76909379663924e-06 3.6230295221472685e-18 1.7273255741999121e-18 
1.3450883202398286e-18 6.456396800417107e-18 3.7690937966437052e-06 
6.456396800417107e-18 1.596737634773266e-19 1.516048185243445e-18 
3.7690937966437052e-06 1.516048185243445e-18 1.0930365292099753e-18 
-4.343584953520054e-19 3.936834267169789e-18 3.7690937966416478e-06 
3.936834267169789e-18 -6.611129640427078e-19 6.982219642555637e-20 
3.7690937966416478e-06 6.982219642555637e-20 -2.0162867992290976e-18 
-1.2576745200831853e-18 1.1154112296692363e-19 3.769093796637873e-06 
1.1154112296692363e-19 1.568955174232197e-19 -9.753632560263147e-18 
3.769093796637873e-06 -9.753632560263147e-18 -1.2830279325040127e-18 
2.501796513010301e-18 -3.607240532312712e-18 3.769093796644315e-06 
-3.607240532312712e-18 -2.2969632206053625e-18 -6.80337030919562e-18 
3.769093796644315e-06 -6.80337030919562e-18 5.8167018064027585e-19 
2.840609691912022e-18 -5.6158706935770915e-18 3.769093796636569e-06 
-5.6158706935770915e-18 -4.246339309836089e-18 -2.1868048300198606e-18 
3.769093796636569e-06 -2.1868048300198606e-18 -8.419500451930501e-20 
8.748156279242415e-19 -9.655799172354169e-19 3.7690937966300985e-06 
-9.655799172354169e-19 4.0460721211622005e-19 -6.0517130663212054e-18 
3.7690937966300985e-06 -6.0517130663212054e-18 -2.666405069642011e-19 
-1.1797474889357893e-18 8.55457015025222e-19 3.7690937966312767e-06 
8.55457015025222e-19 1.902466233347934e-18 -2.0554226684406e-20 
3.7690937966312767e-06 -2.0554226684406e-20 -2.6451817473917174e-19 
-3.137410036629933e-19 5.993659867056736e-19 3.769093796638115e-06 
5.993659867056736e-19 5.982153803004901e-19 1.119951055821492e-17 
3.769093796638115e-06 1.119951055821492e-17 3.3293971381656404e-20 
-2.9259906129952548e-18 -2.9878918848368644e-18 3.769093796641552e-06 
-2.9878918848368644e-18 2.5903216254402695e-18 6.633680098306049e-18 
3.769093796641552e-06 6.633680098306049e-18 4.002892092589912e-19 
6.322253918306095e-19 -1.1253559227572367e-18 3.769093796637891e-06 
-1.1253559227572367e-18 2.041960766823695e-18 -4.061848258215079e-18 
3.769093796637891e-06 -4.061848258215079e-18 2.4441234602220427e-19 
9.039535613097892e-19 4.920152014682174e-18 3.769093796644005e-06 
4.920152014682174e-18 2.640652679268244e-18 -4.729848945930186e-18 
3.769093796644005e-06 -4.729848945930186e-18 -1.9209890564566382e-19 
-2.085056302961186e-18 6.084616287824982e-20 3.7690937966394578e-06 
6.084616287824982e-20 -6.893208016649699e-19 1.170367145156086e-19 
3.7690937966394578e-06 1.170367145156086e-19 1.6372174361711506e-19 
1.1926223897340549e-18 -2.477006171011613e-19 3.7690937966392502e-06 
-2.477006171011613e-19 -1.25947259988618e-18 1.1589324990230564e-18 
3.7690937966392502e-06 1.1589324990230564e-18 7.699328867192205e-19 
1.0814916670542906e-18 2.4486850830744792e-18 3.7690937966399452e-06 
2.4486850830744792e-18 -2.119998588089835e-19 -1.0027570229704657e-18 
3.7690937966399452e-06 -1.0027570229704657e-18 -3.474921623071737e-19 
1.3708381218363596e-18 4.539761784835848e-18 3.769093796640417e-06 
4.539761784835848e-18 2.2147015376858016e-19 1.6250763175088134e-18 
3.769093796640417e-06 1.6250763175088134e-18 -3.439675039898118e-19 
1.6960987735820115e-18 5.583044830088798e-18 3.7690937966309455e-06 
5.583044830088798e-18 -1.744940970413374e-18 4.359899710022314e-18 
3.7690937966309455e-06 4.359899710022314e-18 9.941547408590053e-19 
-3.2783563190530437e-18 -5.0279482518664495e-18 3.7690937966343955e-06 
-5.0279482518664495e-18 -9.454379958192124e-20 8.608188850111996e-19 
3.7690937966343955e-06 8.608188850111996e-19 -1.501658341056344e-18 
8.809142651444415e-21 -5.306592172648123e-18 3.769093796640775e-06 
-5.306592172648123e-18 1.7420751031110637e-18 -1.2758225779309922e-18 
3.769093796640775e-06 -1.2758225779309922e-18 -1.312512938208613e-18 
-1.809940001692989e-18 -7.970564820422439e-19 3.769093796647346e-06 
-7.970564820422439e-19 4.733910398219048e-19 -1.2334636406975783e-18 
3.769093796647346e-06 -1.2334636406975783e-18 4.836115662292066e-19 
2.5478751053409354e-18 -2.7616033192096025e-18 3.7690937966409896e-06 
-2.7616033192096025e-18 -1.563490732948443e-18 2.315593326281868e-18 
3.7690937966409896e-06 2.315593326281868e-18 -3.7359321816264714e-19 
-1.026603932072212e-18 1.184484460002517e-17 3.7690937966438403e-06 
1.184484460002517e-17 1.8072058611828808e-20 1.5012369290238921e-18 
3.7690937966438403e-06 1.5012369290238921e-18 -2.8364044210458426e-19 
-8.131516293641291e-19 -4.548021758044549e-18 3.769093796638171e-06 
-4.548021758044549e-18 1.0830642310863011e-19 -1.3821640122175456e-18 
3.769093796638171e-06 -1.3821640122175456e-18 -6.173807243966438e-20 
1.838400308720734e-18 -3.490370320184003e-18 3.76909379663863e-06 
-3.490370320184003e-18 -3.260834500423771e-18 3.806564259875328e-18 
3.76909379663863e-06 3.806564259875328e-18 -1.091687393898451e-21 
4.061014762316018e-18 -6.5307373613959884e-18 3.7690937966336425e-06 
-6.5307373613959884e-18 -4.748228173484274e-18 -3.510924066192578e-18 
3.7690937966336425e-06 -3.510924066192578e-18 -4.123305319405258e-19 
-7.779150587583491e-19 6.323612324142392e-19 3.7690937966431873e-06 
6.323612324142392e-19 -1.986726484094467e-18 -9.032802012325818e-18 
3.7690937966431873e-06 -9.032802012325818e-18 -6.317989059068605e-19 
1.0367683274392605e-19 -1.199278757355365e-18 3.7690937966360718e-06 
-1.199278757355365e-18 1.0388063144992874e-18 -4.749659400534785e-18 
3.7690937966360718e-06 -4.749659400534785e-18 1.264748586580295e-18 
-3.0100162813628816e-18 4.927755021193676e-18 3.769093796644546e-06 
4.927755021193676e-18 9.480911825720783e-19 1.6270500719554012e-18 
3.769093796644546e-06 1.6270500719554012e-18 2.2468486088924296e-19 
2.0708261494473136e-18 2.390061260745443e-18 3.7690937966482174e-06 
2.390061260745443e-18 1.2349060355831978e-18 -1.8490865470449343e-18 
3.7690937966482174e-06 -1.8490865470449343e-18 -1.5627113582896717e-18 
-4.3164798992079138e-19 9.977698142936736e-19 3.769093796642327e-06 
9.977698142936736e-19 -1.7660418804644444e-18 -5.013776071113796e-18 
3.769093796642327e-06 -5.013776071113796e-18 9.169866083249472e-19 
-1.8709263738952987e-18 -4.317070463898999e-18 3.7690937966420535e-06 
-4.317070463898999e-18 -1.6005330576867873e-18 -3.216068937446183e-18 
3.7690937966420535e-06 -3.216068937446183e-18 1.7739479578070895e-18 
-5.529431079676066e-19 8.376007279541746e-18 3.769093796644619e-06 
8.376007279541746e-18 -3.585026844643417e-19 -2.170617152416047e-18 
3.769093796644619e-06 -2.170617152416047e-18 4.931357058040914e-19 
-1.7042302898756527e-18 3.337405407681481e-19 3.7690937966407173e-06 
3.337405407681481e-19 2.8096518503114058e-18 -2.7874024017070574e-18 
3.7690937966407173e-06 -2.7874024017070574e-18 -6.147024453184864e-19 
1.677125235563515e-18 -5.0494494398483406e-18 3.7690937966371327e-06 
-5.0494494398483406e-18 9.619511486179887e-19 -2.393507609597909e-18 
3.7690937966371327e-06 -2.393507609597909e-18 -1.767327067775154e-21 
9.059864403832e-19 -1.5014155441074102e-18 3.7690937966374287e-06 
-1.5014155441074102e-18 -5.875511077653437e-19 -1.4220528641803193e-18 
3.7690937966374287e-06 -1.4220528641803193e-18 5.68604566067038e-19 
2.852806966352485e-19 2.405434965339428e-18 3.769093796641537e-06 
2.405434965339428e-18 2.5074747655423844e-18 -3.733674501289244e-18 
3.769093796641537e-06 -3.733674501289244e-18 -6.634667339937884e-19 
1.5632840074525362e-18 -2.2305615434847535e-18 3.769093796637548e-06 
-2.2305615434847535e-18 2.6442679000424156e-19 -7.388944424854257e-19 
3.769093796637548e-06 -7.388944424854257e-19 -1.457011616622306e-20 
2.950385161876179e-18 3.1911367356054175e-18 3.7690937966405847e-06 
3.1911367356054175e-18 -4.0244708582163654e-18 1.2766520172752126e-18 
3.7690937966405847e-06 1.2766520172752126e-18 1.606245382527158e-19 
-1.2874900798265327e-19 5.40995373828338e-18 3.7690937966348004e-06 
5.40995373828338e-18 -8.892281584373665e-19 -5.516246683469804e-18 
3.7690937966348004e-06 -5.516246683469804e-18 -9.164131114029338e-19 
-1.1404451601831904e-18 -6.7902950069015046e-18 3.769093796626179e-06 
-6.7902950069015046e-18 2.6281993976213246e-18 -8.907423202643206e-19 
3.769093796626179e-06 -8.907423202643206e-19 1.1695234342290513e-18 
-8.970417724601944e-18 -1.770968556305048e-18 3.769093796634845e-06 
-1.770968556305048e-18 1.9544348982128684e-18 6.652298183945713e-18 
3.769093796634845e-06 6.652298183945713e-18 2.682484624226502e-18 
-5.353248226647178e-19 1.9948025046277006e-18 3.769093796641209e-06 
1.9948025046277006e-18 -4.493348528989725e-19 1.8422791127904452e-18 
3.769093796641209e-06 1.8422791127904452e-18 1.040489605985693e-18 
-1.378969638130001e-18 -1.1463406884339295e-17 1.9410170550676104e-06 
-1.1463406884339295e-17 -7.154887456438816e-19 -7.07607923874756e-18 
1.9410170550676104e-06 -7.07607923874756e-18 -2.0114509390721985e-19 
1.1045309632196046e-19 5.570763631615619e-18 1.9410170550725245e-06 
5.570763631615619e-18 1.7314950251207422e-18 7.379444091096083e-19 
1.9410170550725245e-06 7.379444091096083e-19 -1.3047499088083518e-18 
6.2680438096818225e-19 -3.4690892639410085e-18 1.941017055074668e-06 
-3.4690892639410085e-18 -2.651761247841967e-19 -1.949496882723951e-18 
1.941017055074668e-06 -1.949496882723951e-18 -3.8635802567467158e-19 
-2.1345230270808369e-19 -3.511884376466576e-18 1.9410170550714695e-06 
-3.511884376466576e-18 -1.2393649042467784e-18 -1.5316184950983028e-18 
1.9410170550714695e-06 -1.5316184950983028e-18 3.4780057717862125e-19 
1.4948437453143894e-18 -2.986582933361665e-18 1.9410170550728582e-06 
-2.986582933361665e-18 -1.0782416525458092e-18 1.4016402205816688e-18 
1.9410170550728582e-06 1.4016402205816688e-18 -1.0406811575905641e-18 
6.166399856011306e-19 4.43994795433631e-18 1.941017055073452e-06 
4.43994795433631e-18 2.2686817937042116e-18 2.585880010632037e-18 
1.941017055073452e-06 2.585880010632037e-18 -4.0483436931619948e-19 
-7.250602028496842e-20 -2.05099151054971e-19 1.941017055069528e-06 
-2.05099151054971e-19 2.5025673775826178e-18 3.438066596888629e-18 
1.941017055069528e-06 3.438066596888629e-18 1.1135326122762159e-18 
3.6659585957166057e-19 -8.7370370659792e-18 1.9410170550702024e-06 
-8.7370370659792e-18 3.244782333330145e-19 1.7935881161510773e-18 
1.9410170550702024e-06 1.7935881161510773e-18 7.955458700562888e-19 
-1.6811909937103347e-18 -5.158290155692721e-18 1.9410170550686286e-06 
-5.158290155692721e-18 1.713925923456491e-18 -1.5861968652303593e-18 
1.9410170550686286e-06 -1.5861968652303593e-18 -4.7412119682071e-19 
-2.796563978654798e-18 3.6289949848726945e-18 1.9410170550674783e-06 
3.6289949848726945e-18 4.412564358344696e-18 -8.819970289251589e-19 
1.9410170550674783e-06 -8.819970289251589e-19 -4.225350308273082e-19 
3.2390539903004414e-19 2.102740035054864e-18 1.941017055068347e-06 
2.102740035054864e-18 4.2471594178297773e-19 -1.0007899979983211e-17 
1.941017055068347e-06 -1.0007899979983211e-17 5.610934884337552e-20 
-1.2949439697623745e-18 8.723837138664184e-18 1.9410170550679366e-06 
8.723837138664184e-18 1.0025123185692224e-18 -3.5647701284621355e-18 
1.9410170550679366e-06 -3.5647701284621355e-18 -7.457124629017258e-20 
3.3203691532368573e-18 -2.045830213419914e-18 1.941017055070023e-06 
-2.045830213419914e-18 -6.996763229729269e-19 -1.1820830800964316e-18 
1.941017055070023e-06 -1.1820830800964316e-18 2.67711717470643e-19 
-3.3813555254391654e-19 -5.475969425835993e-18 1.941017055066356e-06 
-5.475969425835993e-18 -1.241278207808152e-18 -4.8164398001498675e-19 
1.941017055066356e-06 -4.8164398001498675e-19 -3.275624270482153e-19 
-8.978549240895584e-19 -4.281812561596931e-18 1.9410170550698983e-06 
-4.281812561596931e-18 8.155563637196997e-19 6.669774920895989e-19 
1.9410170550698983e-06 6.669774920895989e-19 -1.221139292532113e-18 
1.045577470090708e-18 -2.146328531767434e-18 1.941017055068686e-06 
-2.146328531767434e-18 -7.022503374526659e-19 -7.755549508939694e-19 
1.941017055068686e-06 -7.755549508939694e-19 6.475671026498209e-19 
-1.2095630486791409e-18 -4.427838218332896e-18 1.9410170550683084e-06 
-4.427838218332896e-18 -2.7845557276649206e-18 -1.358517396731517e-18 
1.9410170550683084e-06 -1.358517396731517e-18 2.1695309973723176e-18 
-1.0184724157785704e-18 -4.9174035025272734e-18 1.9410170550728485e-06 
-4.9174035025272734e-18 -9.217271114557928e-19 1.2942806003716903e-18 
1.9410170550728485e-06 1.2942806003716903e-18 6.170867324331215e-19 
-4.736608241046046e-19 -2.6241160014790915e-19 1.9410170550716656e-06 
-2.6241160014790915e-19 1.7075246975152368e-18 4.2114368836673335e-18 
1.9410170550716656e-06 4.2114368836673335e-18 -9.904931613745933e-19 
-2.473336205982557e-19 -9.913952008903965e-20 1.9410170550725398e-06 
-9.913952008903965e-20 3.2573165069350157e-18 2.9883228460947797e-18 
1.9410170550725398e-06 2.9883228460947797e-18 -5.808005519649243e-19 
1.6398557858843285e-19 -3.7935841115409466e-18 1.941017055070842e-06 
-3.7935841115409466e-18 -5.628647152494231e-19 -8.1456024216245e-18 
1.941017055070842e-06 -8.1456024216245e-18 -6.716981076711957e-19 
1.292233464331161e-18 2.54201693157728e-18 1.941017055066872e-06 
2.54201693157728e-18 -2.9778315139057485e-18 -1.7725147136204534e-18 
1.941017055066872e-06 -1.7725147136204534e-18 -6.615956638107991e-19 
2.2063514210080013e-18 -2.368342336864936e-19 1.941017055067542e-06 
-2.368342336864936e-19 -3.1558416581130275e-18 1.2692207689685796e-18 
1.941017055067542e-06 1.2692207689685796e-18 -1.6824736854038761e-19 
-9.032759349519863e-19 -4.334996761836374e-18 1.9410170550658126e-06 
-4.334996761836374e-18 -4.0184806901421324e-19 1.0961293175382292e-18 
1.9410170550658126e-06 1.0961293175382292e-18 -1.3842147706029248e-19 
2.927345865710865e-19 2.8730072084660827e-18 1.9410170550737455e-06 
2.8730072084660827e-18 -2.3841679146215336e-19 2.2064376098572803e-18 
1.9410170550737455e-06 2.2064376098572803e-18 -2.577378659401225e-19 
-7.636849052444771e-19 5.112079006562215e-18 1.9410170550707013e-06 
5.112079006562215e-18 8.907189114670059e-19 2.1816073182262847e-18 
1.9410170550707013e-06 2.1816073182262847e-18 1.2373610495185068e-18 
-2.3201926491189797e-18 -3.646336821576508e-19 1.9410170550695688e-06 
-3.646336821576508e-19 1.1248678937208735e-18 2.0265893166902223e-18 
1.9410170550695688e-06 2.0265893166902223e-18 1.9233860106842766e-18 
1.1790698625779845e-19 -2.535965327233838e-18 1.9410170550727655e-06 
-2.535965327233838e-18 1.110662878200384e-18 -1.47927972289282e-19 
1.9410170550727655e-06 -1.47927972289282e-19 -2.9561694528123615e-19 
-2.373725131385451e-18 1.8390815101113767e-18 1.9410170550720082e-06 
1.8390815101113767e-18 1.2020088237131423e-18 -2.5690248528195655e-18 
1.9410170550720082e-06 -2.5690248528195655e-18 -1.737483408086513e-19 
-3.7608262858090935e-19 -1.0544135940801052e-18 1.9410170550681293e-06 
-1.0544135940801052e-18 -2.3896926000359694e-18 -1.7323536746294007e-18 
1.9410170550681293e-06 -1.7323536746294007e-18 5.102273643577401e-19 
-5.963111948670276e-19 7.959897653654423e-18 1.9410170550680907e-06 
7.959897653654423e-18 -7.199773384969108e-19 -3.654099084892512e-18 
1.9410170550680907e-06 -3.654099084892512e-18 -1.6883254983394482e-18 
-2.453007415248457e-19 2.0740525131399254e-19 1.941017055064207e-06 
2.0740525131399254e-19 -2.8673944573845855e-19 -2.971899895075928e-18 
1.941017055064207e-06 -2.971899895075928e-18 -1.6424978507419103e-18 
1.3701604954785558e-18 -3.488549199045226e-18 1.94101705506396e-06 
-3.488549199045226e-18 -7.496690986251295e-19 -6.438971393983339e-18 
1.94101705506396e-06 -6.438971393983339e-18 2.3732959263089067e-19 
-1.3823577699190166e-19 -7.540783497659387e-18 1.94101705506347e-06 
-7.540783497659387e-18 4.596720450753347e-19 -4.473388659172317e-18 
1.94101705506347e-06 -4.473388659172317e-18 -5.289075675841563e-19 
2.9984966332802232e-18 -5.381944083839968e-18 1.941017055068669e-06 
-5.381944083839968e-18 1.3138398022256073e-19 1.0791778614451287e-19 
1.941017055068669e-06 1.0791778614451287e-19 -1.6854547736122152e-18 
-1.6872896309305724e-19 5.542700594173897e-19 1.9410170550686006e-06 
5.542700594173897e-19 -5.734809225811747e-19 -1.4278878414138308e-19 
1.9410170550686006e-06 -1.4278878414138308e-19 3.2566770920676367e-19 
-3.16722559637328e-18 1.303386755312267e-18 1.9410170550662527e-06 
1.303386755312267e-18 1.2862655471800056e-18 2.168889778074304e-18 
1.9410170550662527e-06 2.168889778074304e-18 7.602436580928376e-19 
-1.0089856467693224e-18 5.683129666045156e-19 1.9410170550688852e-06 
5.683129666045156e-19 1.7880320326172716e-18 3.089090967618945e-18 
1.9410170550688852e-06 3.089090967618945e-18 -2.0659806417025986e-19 
-2.6122496093322622e-18 1.9941053017581722e-18 1.941017055072363e-06 
1.9941053017581722e-18 4.401105343018646e-19 9.36896062787424e-19 
1.941017055072363e-06 9.36896062787424e-19 1.4430817366619688e-18 
2.247009002476208e-18 1.6740913746103855e-18 1.941017055069534e-06 
1.6740913746103855e-18 4.2457882057032486e-20 5.278935751889127e-19 
1.941017055069534e-06 5.278935751889127e-19 1.1192104887235966e-18 
-1.755729893068713e-18 -2.9385008643095076e-18 1.941017055071044e-06 
-2.9385008643095076e-18 2.2402384006477117e-18 3.9343704803988106e-19 
1.941017055071044e-06 3.9343704803988106e-19 -7.270387784439725e-19 
-4.607859233063363e-20 -3.595242921321846e-18 1.941017055067518e-06 
-3.595242921321846e-18 3.4997369878542264e-19 -2.278481268036777e-18 
1.941017055067518e-06 -2.278481268036777e-18 -1.3369200855474888e-18 
1.3274700349369393e-18 5.017969240198096e-18 1.9410170550673817e-06 
5.017969240198096e-18 -1.4548057356552047e-18 -2.4248194569067414e-18 
1.9410170550673817e-06 -2.4248194569067414e-18 -4.952710551363474e-19 
1.0638733817514005e-19 1.5150213533456085e-18 1.941017055067247e-06 
1.5150213533456085e-18 -3.6539839258533913e-19 3.163206057849153e-18 
1.941017055067247e-06 3.163206057849153e-18 -1.7111603707634341e-18 
6.403569081242511e-19 -3.633138944851513e-18 1.9410170550668473e-06 
-3.633138944851513e-18 -6.072731451579638e-20 1.9938411540458507e-18 
1.9410170550668473e-06 1.9938411540458507e-18 -1.9820626607450933e-18 
-2.751163012681969e-19 -6.373805336882727e-19 1.9410170550649618e-06 
-6.373805336882727e-19 -1.8917244805240166e-19 -2.313399556981429e-18 
1.9410170550649618e-06 -2.313399556981429e-18 7.548335258362699e-19 
-1.6188493687924194e-18 -6.262707325546765e-18 1.941017055065414e-06 
-6.262707325546765e-18 1.526201202983958e-19 -1.3367704086981864e-18 
1.941017055065414e-06 -1.3367704086981864e-18 1.7446775664630052e-18 
1.0611628763201868e-18 -5.028454172093867e-18 1.941017055069412e-06 
-5.028454172093867e-18 -5.595400930734355e-19 2.1298719711085756e-18 
1.941017055069412e-06 2.1298719711085756e-18 7.911806137792127e-19 
-9.866239769618088e-19 2.150365196360177e-18 1.9410170550721497e-06 
2.150365196360177e-18 -2.1297217740182693e-18 1.9143124142304448e-18 
1.9410170550721497e-06 1.9143124142304448e-18 7.359325294538542e-19 
2.7992744840860115e-18 1.5733391097555726e-18 1.941017055075387e-06 
1.5733391097555726e-18 -1.6762252469775734e-18 4.155519028247609e-19 
1.941017055075387e-06 4.155519028247609e-19 7.783039182868867e-19 
-2.1006417091906648e-19 1.2408019069543521e-18 1.941017055072919e-06 
1.2408019069543521e-18 1.066585016557946e-18 3.125612396388442e-18 
1.941017055072919e-06 3.125612396388442e-18 -4.413489308221868e-19 
2.961227183601034e-18 -3.4290206238439653e-18 1.9410170550713306e-06 
-3.4290206238439653e-18 -1.891130423075662e-20 2.555350694514885e-18 
1.9410170550713306e-06 2.555350694514885e-18 -2.5698612090397427e-18 
1.456219042919593e-18 -8.047734346546564e-19 1.9410170550678535e-06 
-8.047734346546564e-19 5.257068275094131e-19 -4.787127169573587e-18 
1.9410170550678535e-06 -4.787127169573587e-18 -2.284048519532989e-18 
1.1370570283941725e-18 -1.5445587723273597e-18 1.9410170550673568e-06 
-1.5445587723273597e-18 -6.778530307432467e-19 -5.198452788770298e-18 
1.9410170550673568e-06 -5.198452788770298e-18 -2.022814389138686e-18 
-3.8556939759015736e-19 -3.3543447583727986e-19 1.9410170550684143e-06 
-3.3543447583727986e-19 5.185486010521535e-19 6.5387266980863035e-19 
1.9410170550684143e-06 6.5387266980863035e-19 -1.3921955494752167e-18 
-1.9468205259692836e-18 6.38098639046578e-18 1.9410170550599533e-06 
6.38098639046578e-18 9.02527510175077e-19 2.5219735049400257e-18 
1.9410170550599533e-06 2.5219735049400257e-18 1.0389936468195797e-18 
-6.085084693074892e-19 5.053950659077727e-18 1.9410170550633943e-06 
5.053950659077727e-18 -1.1916299200016648e-18 -9.750019405797514e-19 
1.9410170550633943e-06 -9.750019405797514e-19 2.666408127418372e-18 
-5.217722955086444e-20 -2.2664330070614347e-18 1.941017055072627e-06 
-2.2664330070614347e-18 -2.682410246604899e-18 -9.41588258244669e-19 
1.941017055072627e-06 -9.41588258244669e-19 1.6542553477839646e-18 
9.419006373467804e-20 -2.7269025848677497e-18 1.9410170550695214e-06 
-2.7269025848677497e-18 -1.6163992843148293e-18 1.9100655145106166e-18 
1.9410170550695214e-06 1.9100655145106166e-18 6.66982535780315e-19 
1.6771252355635147e-18 -2.646776083088994e-18 1.9410170550713408e-06 
-2.646776083088994e-18 -1.058892925729256e-18 -5.448878478772299e-19 
1.9410170550713408e-06 -5.448878478772299e-19 1.1152242669431791e-18 
1.8810907692623503e-18 2.059678523430838e-18 1.9410170550681017e-06 
2.059678523430838e-18 -5.896489547998235e-19 1.176956657820384e-18 
1.9410170550681017e-06 1.176956657820384e-18 -8.782128753431668e-19 
2.099286456475058e-18 1.3425083902225333e-18 1.9410170550711536e-06 
1.3425083902225333e-18 -3.972256774766272e-19 2.5769699636000564e-18 
1.9410170550711536e-06 2.5769699636000564e-18 -1.3145327489955613e-18 
1.046255096448512e-18 3.9243741342551174e-18 1.9410170550695904e-06 
3.9243741342551174e-18 -1.924604998212722e-18 -1.765592514641328e-19 
1.9410170550695904e-06 -1.765592514641328e-19 -3.87489594478945e-19 
-3.3881317890172014e-21 -6.790760510842378e-19 1.941017055070387e-06 
-6.790760510842378e-19 -2.8633678828061756e-18 -1.4159741380805024e-18 
1.941017055070387e-06 -1.4159741380805024e-18 -1.2364832414090492e-18 
1.6513754339669835e-18 1.295588455731402e-18 1.9410170550714865e-06 
1.295588455731402e-18 2.0256103890892456e-20 -1.5160686874628744e-18 
1.9410170550714865e-06 -1.5160686874628744e-18 -1.237755790752681e-18 
-8.795590124288652e-19 9.446516401164489e-20 1.9410170550659003e-06 
9.446516401164489e-20 1.174924450744989e-18 -1.2821812893838038e-18 
1.9410170550659003e-06 -1.2821812893838038e-18 6.829473523756135e-19 
-5.902125576467966e-19 -8.35030383580277e-19 1.9410170550671954e-06 
-8.35030383580277e-19 -2.258539007960001e-19 1.362406633868194e-18 
1.9410170550671954e-06 1.362406633868194e-18 1.545491296734641e-18 
-2.7694589243426607e-18 -1.5425279123573515e-18 1.9410170550687836e-06 
-1.5425279123573515e-18 1.836958966238156e-18 3.06211734023019e-18 
1.9410170550687836e-06 3.06211734023019e-18 4.3184168183766327e-19 
-4.797594613248358e-19 3.538040939444206e-18 1.941017055063851e-06 
3.538040939444206e-18 1.4469646899663739e-18 -9.740033769778003e-19 
1.941017055063851e-06 -9.740033769778003e-19 3.9720289351423075e-19 
-8.151845084375391e-19 8.1407381267216325e-19 1.9410170550669985e-06 
8.1407381267216325e-19 2.0816729371392262e-18 -5.747148336554148e-18 
1.9410170550669985e-06 -5.747148336554148e-18 8.75462885865413e-19 
4.716279450311938e-19 9.547285100414031e-19 1.9410170550666944e-06 
9.547285100414031e-19 -2.614187021978431e-18 9.098267370879395e-19 
1.9410170550666944e-06 9.098267370879395e-19 -5.604115576103591e-19 
3.2973298570715405e-18 -6.300050607611762e-18 1.9410170550710316e-06 
-6.300050607611762e-18 -1.2979081106311878e-18 1.920327398633179e-18 
1.9410170550710316e-06 1.920327398633179e-18 -1.128617921113285e-18 
4.0860869375547495e-19 -3.936105757923482e-18 1.941017055072597e-06 
-3.936105757923482e-18 -1.410143284792845e-18 4.818202053717532e-18 
1.941017055072597e-06 4.818202053717532e-18 -4.8413637860098214e-20 
3.2526065174565133e-19 -2.4472568958028087e-19 1.941017055073887e-06 
-2.4472568958028087e-19 1.4629322520418465e-19 6.594800349028647e-18 
1.941017055073887e-06 6.594800349028647e-18 -1.0005958181221505e-18 
2.8805896470224244e-18 6.853472164840077e-18 1.9410170550670065e-06 
6.853472164840077e-18 7.824490576021616e-20 6.160447832872316e-18 
1.9410170550670065e-06 6.160447832872316e-18 -1.8064095432792426e-18 
-2.6034404666808174e-18 3.2001414707294546e-19 1.9410170550699516e-06 
3.2001414707294546e-19 -1.3486835362738358e-19 -6.1931265896934864e-21 
1.9410170550699516e-06 -6.1931265896934864e-21 3.057893761285214e-19 
-4.1470733097570575e-19 -1.641264393673414e-18 1.9410170550747204e-06 
-1.641264393673414e-18 -4.043119488223797e-19 -4.639347356042008e-18 
1.9410170550747204e-06 -4.639347356042008e-18 1.5877658163590574e-19 
-9.208942202548752e-19 2.109203250446873e-18 1.9410170550675393e-06 
2.109203250446873e-18 1.42596686957217e-19 8.078373890351029e-19 
1.9410170550675393e-06 8.078373890351029e-19 -1.2147071803750307e-18 
-2.222614453595281e-19 -1.4973104171143768e-18 1.941017055061365e-06 
-1.4973104171143768e-18 8.375954217921014e-19 9.386416242846583e-18 
1.941017055061365e-06 9.386416242846583e-18 1.6609900170266973e-19 
-3.4159144696871426e-18 9.863385376718697e-18 1.9410170550661535e-06 
9.863385376718697e-18 2.0006416029675292e-18 3.5231357871443786e-18 
1.9410170550661535e-06 3.5231357871443786e-18 9.477723880708213e-19 
-8.212831456577691e-19 -8.860480424333135e-20 1.9410170550700812e-06 
-8.860480424333135e-20 -6.915081456121557e-19 3.944356780782117e-18 
1.9410170550700812e-06 3.944356780782117e-18 -6.604104452528066e-20 
3.215337067777325e-18 -6.306150244774733e-18 1.9410170550708563e-06 
-6.306150244774733e-18 -2.270563093069334e-18 1.5844788474643616e-18 
1.9410170550708563e-06 1.5844788474643616e-18 -1.865408520165126e-18 
4.9812313562130896e-18 1.1161780345967109e-19 1.9410170550695637e-06 
1.1161780345967109e-19 -3.693271269778673e-18 1.3763234147950953e-18 
1.9410170550695637e-06 1.3763234147950953e-18 -1.4369213267278253e-18 
-8.131516293641283e-20 7.62083228951502e-18 1.941017055072615e-06 
7.62083228951502e-18 -1.5040196495434446e-18 6.914501319622324e-19 
1.941017055072615e-06 6.914501319622324e-19 -1.0772649953454612e-18 
1.3755815063409838e-18 -5.412780148455262e-19 1.941017055065386e-06 
-5.412780148455262e-19 1.0838751116204608e-18 -3.523971952918056e-18 
1.941017055065386e-06 -3.523971952918056e-18 -1.0490448069579769e-18 
-3.211271309630504e-18 -8.650690069060229e-19 1.9410170550635354e-06 
-8.650690069060229e-19 1.5130737308126496e-18 -3.772575525468398e-19 
1.9410170550635354e-06 -3.772575525468398e-19 6.262286621827447e-19 
-4.838252194716562e-19 -6.476337961931851e-18 1.9410170550672953e-06 
-6.476337961931851e-18 1.5430071775949631e-18 6.701423086610514e-18 
1.9410170550672953e-06 6.701423086610514e-18 -3.1767024976275146e-19 
-2.649519059011453e-19 -1.3173630324874595e-18 1.9410170550658774e-06 
-1.3173630324874595e-18 -1.770431658017178e-18 3.534212279831715e-18 
1.9410170550658774e-06 3.534212279831715e-18 -7.0500438164176055e-19 
-4.668845605265702e-19 -2.983898290520102e-18 1.9410170550647496e-06 
-2.983898290520102e-18 -6.722548033605731e-19 -2.034702871131208e-19 
1.9410170550647496e-06 -2.034702871131208e-19 6.987701596382384e-19 
3.9912192474622617e-19 7.408652831619484e-18 1.9410170550671043e-06 
7.408652831619484e-18 6.11736127196751e-19 -1.4493494359825302e-18 
1.9410170550671043e-06 -1.4493494359825302e-18 8.505419666340071e-19 
-2.9015960641143315e-18 6.62273542667393e-18 1.9410170550702523e-06 
6.62273542667393e-18 3.6291375383297495e-18 -1.5301682042618839e-18 
1.9410170550702523e-06 -1.5301682042618839e-18 8.98407380377829e-20 
4.153171946977285e-18 -3.518576104775985e-18 1.94101705507228e-06 
-3.518576104775985e-18 -3.976506441956756e-19 -4.9353157665184776e-18 
1.94101705507228e-06 -4.9353157665184776e-18 -1.067658700142216e-18 
2.593953697671569e-18 -8.018759780025281e-19 1.9410170550713022e-06 
-8.018759780025281e-19 -1.4267429791931705e-19 -2.703130390294167e-18 
1.9410170550713022e-06 -2.703130390294167e-18 -1.0468665232666236e-18 
-1.158741071843892e-19 1.2023017832966102e-19 1.9410170550730518e-06 
1.2023017832966102e-19 1.3268748414739539e-18 3.274055485924455e-18 
1.9410170550730518e-06 3.274055485924455e-18 6.435069449359202e-20 
-3.52365706057792e-20 2.861872067957023e-19 1.94101705507159e-06 
2.861872067957023e-19 4.897387681014586e-20 4.263813201803297e-18 
1.94101705507159e-06 4.263813201803297e-18 5.3791687691234895e-19 
-9.534202854294408e-19 8.110419722445177e-20 1.9410170550674804e-06 
8.110419722445177e-20 -7.900677867551805e-19 5.445960059829625e-18 
1.9410170550674804e-06 5.445960059829625e-18 5.785183857922501e-19 
-3.1286008939784833e-18 -3.793038810380692e-18 1.9410170550679315e-06 
-3.793038810380692e-18 3.933427435741359e-19 1.091393868678552e-18 
1.9410170550679315e-06 1.091393868678552e-18 2.544578718759547e-19 
8.267041565201971e-19 -5.132224367466269e-18 1.9410170550689263e-06 
-5.132224367466269e-18 2.3066661980484724e-18 -3.975414945251425e-18 
1.9410170550689263e-06 -3.975414945251425e-18 1.679100030783738e-19 
-3.3400203176131577e-18 -3.3264553271171503e-18 1.94101705507035e-06 
-3.3264553271171503e-18 -8.648016668341578e-20 -2.0655203027076116e-18 
1.94101705507035e-06 -2.0655203027076116e-18 -1.0163406779339746e-19 
9.303809892641232e-19 -3.4829982164117074e-18 1.9410170550738836e-06 
-3.4829982164117074e-18 -1.3199966030690361e-18 -3.743460007324873e-19 
1.9410170550738836e-06 -3.743460007324873e-19 -9.405487455934226e-21 
1.357963221038095e-18 -5.27080679113871e-18 6.029068684556469e-06 
-5.27080679113871e-18 -1.987529000407808e-18 3.922496257637204e-18 
6.029068684556469e-06 3.922496257637204e-18 -1.088813652026083e-18 
2.277502188577362e-18 4.654546381997308e-18 6.029068684555187e-06 
4.654546381997308e-18 -1.3739608864148683e-18 -3.890462393481369e-20 
6.029068684555187e-06 -3.890462393481369e-20 -4.854727240028136e-19 
-1.013729031273946e-18 -4.656091359273619e-18 6.029068684554516e-06 
-4.656091359273619e-18 -2.3680558945140148e-21 1.151175911236568e-19 
6.029068684554516e-06 1.151175911236568e-19 5.558105945185823e-20 
-1.3369568039461881e-18 -2.9836952083374008e-18 6.029068684551337e-06 
-2.9836952083374008e-18 -6.5048329106450014e-21 5.083307955610314e-19 
6.029068684551337e-06 5.083307955610314e-19 3.2020976747459986e-19 
3.1509625637859973e-19 -6.5388910485071315e-18 6.029068684550236e-06 
-6.5388910485071315e-18 -7.666364288683341e-19 -6.977967139048007e-19 
6.029068684550236e-06 -6.977967139048007e-19 9.97104926801826e-19 
6.1257422745430985e-19 1.801957459553944e-18 6.029068684550753e-06 
1.801957459553944e-18 1.1667162099532076e-18 3.949512531343891e-19 
6.029068684550753e-06 3.949512531343891e-19 -3.837343185021921e-19 
3.279711571768657e-19 3.1405033418024486e-18 6.029068684551352e-06 
3.1405033418024486e-18 1.847238212529656e-18 1.603530828353928e-18 
6.029068684551352e-06 1.603530828353928e-18 -5.966587147358533e-19 
8.76170880639848e-19 -7.790846733586965e-18 6.029068684552865e-06 
-7.790846733586965e-18 4.555222350485081e-19 1.747149056755353e-18 
6.029068684552865e-06 1.747149056755353e-18 -3.424887572089816e-19 
-2.1128389836311265e-18 5.652445862827846e-19 6.029068684554239e-06 
5.652445862827846e-19 1.0414743366537851e-18 3.4866785014896396e-18 
6.029068684554239e-06 3.4866785014896396e-18 7.336286323700114e-19 
-1.5429552167184334e-18 5.927114951999095e-18 6.029068684558128e-06 
5.927114951999095e-18 2.5240240196251025e-18 3.761861213730059e-18 
6.029068684558128e-06 3.761861213730059e-18 9.923282841011467e-19 
1.4331797467542762e-18 3.035465645747365e-19 6.029068684559236e-06 
3.035465645747365e-19 4.6357276046256685e-19 7.546435819115753e-18 
6.029068684559236e-06 7.546435819115753e-18 -7.539213587832627e-19 
1.7957098481791167e-19 4.954314289998427e-18 6.029068684556029e-06 
4.954314289998427e-18 8.949987518984358e-19 4.4514640790628466e-18 
6.029068684556029e-06 4.4514640790628466e-18 -7.375802826843909e-19 
1.8919327909872063e-18 -5.1498365021696425e-18 6.0290686845529185e-06 
-5.1498365021696425e-18 1.0554101059409107e-19 -1.0609886288945278e-18 
6.0290686845529185e-06 -1.0609886288945278e-18 -1.7132333587955308e-18 
-2.2632720350634967e-19 -2.0756714942790533e-18 6.0290686845524865e-06 
-2.0756714942790533e-18 -1.5090628049435527e-18 -1.7880011110932263e-18 
6.0290686845524865e-06 -1.7880011110932263e-18 5.074124548804903e-19 
-1.019827668494178e-18 1.977433424450194e-18 6.02906868455377e-06 
1.977433424450194e-18 7.144710102352421e-19 2.4697962361487323e-18 
6.02906868455377e-06 2.4697962361487323e-18 2.512500178337843e-18 
6.166399856011306e-19 -1.2393649247348046e-18 6.0290686845534834e-06 
-1.2393649247348046e-18 -3.880021356327323e-20 -8.329370307199349e-19 
6.0290686845534834e-06 -8.329370307199349e-19 -4.0002061017771394e-19 
-1.3288252876525465e-18 -2.711647188851488e-18 6.029068684551671e-06 
-2.711647188851488e-18 -2.9596535778361468e-18 -3.3004629316235858e-18 
6.029068684551671e-06 -3.3004629316235858e-18 3.562305599722202e-19 
3.272935308190621e-19 -9.617180995320138e-18 6.029068684553806e-06 
-9.617180995320138e-18 -1.4096747563146458e-18 -5.798589819540612e-19 
6.029068684553806e-06 -5.798589819540612e-19 1.6545705016982091e-19 
9.012430558785763e-19 -2.027570230423482e-18 6.0290686845565006e-06 
-2.027570230423482e-18 7.2910448787641e-19 1.2099563314697174e-18 
6.0290686845565006e-06 1.2099563314697174e-18 -1.328396051048692e-18 
5.80048162279745e-19 -1.0097020640520813e-18 6.0290686845555536e-06 
-1.0097020640520813e-18 1.3489479463754777e-18 4.982887832286592e-19 
6.0290686845555536e-06 4.982887832286592e-19 -4.620886425056287e-19 
-3.9912192474622694e-19 -6.942785996290364e-19 6.029068684558171e-06 
-6.942785996290364e-19 -4.484302608008055e-19 6.216682556823236e-19 
6.029068684558171e-06 6.216682556823236e-19 1.7515684248459447e-19 
8.748156279242415e-19 6.0063233269555984e-18 6.029068684556162e-06 
6.0063233269555984e-18 -5.8813851678807215e-19 -2.1759071588735404e-18 
6.029068684556162e-06 -2.1759071588735404e-18 -3.848148098213321e-19 
2.2754693095039525e-18 -2.169908531533775e-18 6.029068684552099e-06 
-2.169908531533775e-18 -2.2883024415052308e-18 1.7253519753623397e-18 
6.029068684552099e-06 1.7253519753623397e-18 -2.2459938634133327e-18 
1.0577747445311696e-18 -3.4180794351156578e-18 6.029068684549765e-06 
-3.4180794351156578e-18 -6.5648744010734765e-19 2.1290592933770337e-18 
6.029068684549765e-06 2.1290592933770337e-18 -3.903479530308504e-19 
1.473837328222483e-18 2.4832273773202486e-18 6.029068684552616e-06 
2.4832273773202486e-18 -1.0507617771882833e-18 -3.0719757081575516e-19 
6.029068684552616e-06 -3.0719757081575516e-19 1.4669602351199437e-18 
-3.5304333241559234e-19 6.7343059822690506e-18 6.029068684553329e-06 
6.7343059822690506e-18 3.3746937224566525e-19 1.300301490397584e-18 
6.029068684553329e-06 1.300301490397584e-18 -4.324156623605338e-20 
-3.2905535934935057e-18 7.93465662948302e-18 6.029068684552879e-06 
7.93465662948302e-18 1.5225631315799554e-18 1.0080945677620413e-18 
6.029068684552879e-06 1.0080945677620413e-18 1.3433716799481644e-18 
-2.858905603572715e-18 -1.918459183195697e-18 6.029068684555669e-06 
-1.918459183195697e-18 1.0092541799941522e-18 -2.058154342672752e-18 
6.029068684555669e-06 -2.058154342672752e-18 2.0351505926328235e-18 
2.771491803416077e-19 -1.1841580116277423e-18 6.029068684558451e-06 
-1.1841580116277423e-18 6.1547789210468625e-21 -2.7377829794586976e-18 
6.029068684558451e-06 -2.7377829794586976e-18 1.4412088533421203e-19 
3.652406068560549e-19 -4.063262842568259e-18 6.029068684556502e-06 
-4.063262842568259e-18 -2.477270395693673e-18 -1.3838327771369054e-18 
6.029068684556502e-06 -1.3838327771369054e-18 -3.3313048407100525e-19 
2.073536654878521e-19 5.996279676674343e-18 6.029068684557715e-06 
5.996279676674343e-18 6.520266451880664e-20 -6.250750905877541e-19 
6.029068684557715e-06 -6.250750905877541e-19 -2.1824544309104424e-19 
6.13929480169917e-19 1.6989627054129789e-18 6.029068684562382e-06 
1.6989627054129789e-18 -1.5397347244069525e-18 1.5472511556717565e-18 
6.029068684562382e-06 1.5472511556717565e-18 -5.63525079496892e-19 
1.9752808329970284e-18 -2.1707537015374357e-18 6.0290686845594135e-06 
-2.1707537015374357e-18 -1.3707509959325135e-18 7.400062315058684e-19 
6.0290686845594135e-06 7.400062315058684e-19 -8.924352214049446e-19 
6.572975670693401e-20 -2.7460711591176764e-18 6.029068684553275e-06 
-2.7460711591176764e-18 1.3017786650009087e-19 -1.6311298171740121e-18 
6.029068684553275e-06 -1.6311298171740121e-18 -4.301952027167008e-19 
2.0450763478507824e-18 -4.180383321578105e-18 6.029068684555291e-06 
-4.180383321578105e-18 -1.331977303527298e-19 4.678829203586875e-19 
6.029068684555291e-06 4.678829203586875e-19 4.682872473379415e-19 
1.126215006669318e-18 -5.829824817536336e-18 6.029068684553627e-06 
-5.829824817536336e-18 -1.23685132549264e-18 1.3539865806948222e-18 
6.029068684553627e-06 1.3539865806948222e-18 -1.0455586348712073e-19 
-3.806227251781924e-18 -5.303973707006397e-18 6.029068684551418e-06 
-5.303973707006397e-18 -6.195265691251215e-19 3.0893463550628623e-19 
6.029068684551418e-06 3.0893463550628623e-19 1.065625460334418e-18 
-1.6025863362051362e-18 -2.5958415721213966e-18 6.029068684556607e-06 
-2.5958415721213966e-18 7.542795995623736e-19 -1.3126179652239147e-18 
6.029068684556607e-06 -1.3126179652239147e-18 2.486984232373144e-18 
-1.9142944607947188e-18 2.2403208640553545e-18 6.029068684559816e-06 
2.2403208640553545e-18 6.029074116582354e-19 -6.301306826087841e-18 
6.029068684559816e-06 -6.301306826087841e-18 1.759889396650107e-18 
-1.2739375526704646e-19 2.178549714717896e-18 6.029068684555865e-06 
2.178549714717896e-18 7.649968820121453e-20 -5.317413957556934e-18 
6.029068684555865e-06 -5.317413957556934e-18 7.94413353154047e-19 
-1.8295911660692887e-18 7.456605296779302e-18 6.029068684558671e-06 
7.456605296779302e-18 3.656971773746961e-18 -3.590139589934335e-18 
6.029068684558671e-06 -3.590139589934335e-18 -1.0070752715911592e-18 
-5.502326025363938e-19 -2.0773692682918014e-18 6.029068684560978e-06 
-2.0773692682918014e-18 2.0307985822290646e-18 -2.918015462950413e-19 
6.029068684560978e-06 -2.918015462950413e-19 -8.059244659315126e-19 
1.3240819031479221e-18 1.0237567521860334e-18 6.029068684558935e-06 
1.0237567521860334e-18 -1.7286202370188269e-18 3.937735508874045e-18 
6.029068684558935e-06 3.937735508874045e-18 -1.3034546202138881e-18 
9.56808417218458e-19 7.336979163147162e-21 6.029068684554048e-06 
7.336979163147162e-21 -2.3988374450043887e-19 5.3449913402143755e-18 
6.029068684554048e-06 5.3449913402143755e-18 -1.6073523445853524e-18 
2.093865445612629e-19 -1.3230940756537485e-19 6.0290686845543914e-06 
-1.3230940756537485e-19 -1.2849603764900854e-20 5.750757132720683e-18 
6.0290686845543914e-06 5.750757132720683e-18 1.5113031197769241e-19 
5.007658784167426e-19 4.909770297993679e-18 6.0290686845545736e-06 
4.909770297993679e-18 -9.57916165961172e-20 1.6261205866962048e-18 
6.0290686845545736e-06 1.6261205866962048e-18 2.7204680938048493e-20 
-1.6669608401964627e-18 4.5762715449233345e-18 6.029068684558181e-06 
4.5762715449233345e-18 -2.0595923751067072e-19 -4.1174127668679405e-19 
6.029068684558181e-06 -4.1174127668679405e-19 1.6977994340392642e-18 
-9.622294280808883e-20 -1.017495069630941e-18 6.029068684556245e-06 
-1.017495069630941e-18 -8.659936782171418e-19 1.356096107041787e-18 
6.029068684556245e-06 1.356096107041787e-18 2.8176496333143337e-18 
-1.7259143333253627e-18 -2.0568301757056022e-18 6.029068684556485e-06 
-2.0568301757056022e-18 -1.0230195624215562e-18 -4.492494947900438e-19 
6.029068684556485e-06 -4.492494947900438e-19 5.739662712722295e-19 
1.9766360857126356e-18 3.2202452253221774e-18 6.029068684553107e-06 
3.2202452253221774e-18 -1.6859125795215015e-19 -6.569946941803176e-19 
6.029068684553107e-06 -6.569946941803176e-19 -3.19211378251377e-19 
-8.59230221694762e-19 1.9281192318142494e-18 6.02906868455893e-06 
1.9281192318142494e-18 2.706774868913149e-18 -3.0552865470392464e-18 
6.02906868455893e-06 -3.0552865470392464e-18 -1.6044597862342632e-18 
-1.951563910473905e-19 -8.641367990323628e-18 6.029068684558518e-06 
-8.641367990323628e-18 1.8131184427125554e-18 -5.677883557654783e-19 
6.029068684558518e-06 -5.677883557654783e-19 -1.261235064176527e-18 
1.1533200609814556e-18 -1.4559406638256517e-18 6.029068684558527e-06 
-1.4559406638256517e-18 1.6503220532228194e-18 -2.27820704343195e-19 
6.029068684558527e-06 -2.27820704343195e-19 -1.6104822471564477e-18 
2.2293907171733185e-18 -1.478822534981615e-19 6.02906868455205e-06 
-1.478822534981615e-19 -2.479005630919356e-19 -3.360914226883836e-18 
6.02906868455205e-06 -3.360914226883836e-18 -1.9503516960997537e-18 
1.2251484549086197e-18 -1.6003934774596875e-18 6.029068684553923e-06 
-1.6003934774596875e-18 -8.29075783989188e-20 -1.5386107394946657e-18 
6.029068684553923e-06 -1.5386107394946657e-18 -1.1430831556217702e-18 
-9.751043288791504e-19 1.9960667821440918e-19 6.029068684557087e-06 
1.9960667821440918e-19 -2.620583861412486e-19 1.78131721772881e-18 
6.029068684557087e-06 1.78131721772881e-18 -3.6130311149128728e-19 
-1.5199159205531162e-18 -2.8085116293927435e-18 6.029068684560824e-06 
-2.8085116293927435e-18 -1.3580944435667144e-18 2.3333334674918107e-19 
6.029068684560824e-06 2.3333334674918107e-19 2.3732469532100535e-18 
-2.1562070705305465e-18 -5.16067421167102e-18 6.0290686845573705e-06 
-5.16067421167102e-18 -2.311855754076767e-18 2.385769014487247e-18 
6.0290686845573705e-06 2.385769014487247e-18 3.115529179349048e-18 
-8.951444186583448e-19 -2.6019784285651416e-18 6.029068684556442e-06 
-2.6019784285651416e-18 -1.596034334320231e-18 4.6170595623534645e-18 
6.029068684556442e-06 4.6170595623534645e-18 1.3221578617778039e-18 
2.3750803841010574e-18 -3.082225111525412e-18 6.0290686845541975e-06 
-3.082225111525412e-18 -1.251306881738506e-18 4.4633841643393685e-18 
6.0290686845541975e-06 4.4633841643393685e-18 -2.052596816061038e-19 
2.879912020664621e-18 2.1956022341943295e-18 6.029068684555745e-06 
2.1956022341943295e-18 -7.681379255055803e-19 3.7644369265433937e-19 
6.029068684555745e-06 3.7644369265433937e-19 -6.971731668592317e-19 
2.0572736222912444e-18 4.1636440047911217e-19 6.029068684556009e-06 
4.1636440047911217e-19 -1.191454356911669e-18 -1.7883687444459685e-18 
6.029068684556009e-06 -1.7883687444459685e-18 -7.562734875720652e-19 
1.0598076236045806e-18 3.2697568627725676e-18 6.029068684555067e-06 
3.2697568627725676e-18 -6.170992029938205e-20 -3.110840034870822e-18 
6.029068684555067e-06 -3.110840034870822e-18 -1.3877316444414351e-18 
7.223496974184671e-19 1.1653251622594545e-18 6.029068684552489e-06 
1.1653251622594545e-18 -1.3159843167833297e-18 -6.281265217315062e-19 
6.029068684552489e-06 -6.281265217315062e-19 -1.2683849972296152e-18 
1.625625632370453e-18 1.5484724521834694e-18 6.0290686845511185e-06 
1.5484724521834694e-18 9.692188119923622e-20 -4.104024500368088e-18 
6.0290686845511185e-06 -4.104024500368088e-18 -8.552104598958564e-19 
-2.032879073410321e-18 6.457324814609788e-19 6.02906868455246e-06 
6.457324814609788e-19 6.654274690646701e-19 -4.888655409511383e-18 
6.02906868455246e-06 -4.888655409511383e-18 3.1642693530924973e-19 
-2.0532078641444248e-19 2.9631755129632886e-18 6.029068684554129e-06 
2.9631755129632886e-18 -1.5921496680721267e-18 5.103417250074703e-18 
6.029068684554129e-06 5.103417250074703e-18 1.356310423083509e-18 
-2.0538854905022272e-18 3.837118316666874e-18 6.029068684557434e-06 
3.837118316666874e-18 6.229224260066642e-19 5.2234477359593626e-18 
6.029068684557434e-06 5.2234477359593626e-18 5.26560411100289e-19 
-1.9386890096756428e-18 3.106759718688372e-18 6.029068684558227e-06 
3.106759718688372e-18 2.154030355592531e-18 -1.9689681013164204e-18 
6.029068684558227e-06 -1.9689681013164204e-18 9.2944406601739e-19 
-2.505184644799319e-18 -1.5291976792129902e-18 6.0290686845597294e-06 
-1.5291976792129902e-18 6.841875731358535e-19 -1.66718408791159e-20 
6.0290686845597294e-06 -1.66718408791159e-20 5.273103562965168e-19 
7.962109704190423e-19 -1.6738169085733128e-18 6.029068684556441e-06 
-1.6738169085733128e-18 -1.2959191876391168e-18 3.2726417837923605e-18 
6.029068684556441e-06 3.2726417837923605e-18 3.2446622976367076e-19 
4.2941182294004005e-18 -5.3368604140618425e-18 6.0290686845537596e-06 
-5.3368604140618425e-18 -3.2207575251211135e-18 3.5089966659412406e-19 
6.0290686845537596e-06 3.5089966659412406e-19 4.563985491872727e-19 
1.1587410718438844e-19 -4.05964789013035e-18 6.029068684552985e-06 
-4.05964789013035e-18 -1.269179834608162e-18 4.7487861326750856e-20 
6.029068684552985e-06 4.7487861326750856e-20 -8.414609283595144e-19 
9.83235845172792e-19 -2.391329581000839e-18 6.0290686845531006e-06 
-2.391329581000839e-18 1.5705795623570794e-18 9.811396612892553e-19 
6.0290686845531006e-06 9.811396612892553e-19 -2.3611314327297655e-18 
2.1995751574299673e-18 1.6080717092946907e-18 6.029068684549284e-06 
1.6080717092946907e-18 -5.336813919189927e-20 -3.3983857731092365e-19 
6.029068684549284e-06 -3.3983857731092365e-19 -2.1447336706524358e-18 
-2.0416882160617652e-18 -1.4643693982794704e-19 6.029068684548913e-06 
-1.4643693982794704e-19 -9.171452363838827e-19 -2.908655437453927e-18 
6.029068684548913e-06 -2.908655437453927e-18 2.6709921421694413e-20 
-6.742382260144231e-19 -3.092471025039237e-18 6.029068684553687e-06 
-3.092471025039237e-18 8.213498622665121e-19 -3.7314307400246775e-18 
6.029068684553687e-06 -3.7314307400246775e-18 5.302938123891507e-19 
-2.267337793210312e-18 -8.4579083034490585e-19 6.02906868455802e-06 
-8.4579083034490585e-19 9.77298499489561e-19 6.852066798823055e-19 
6.02906868455802e-06 6.852066798823055e-19 6.520708412503027e-20 
6.240938755369686e-19 -2.036845069224807e-18 6.029068684556909e-06 
-2.036845069224807e-18 4.785000961669316e-19 5.75087615782204e-18 
6.029068684556909e-06 5.75087615782204e-18 4.490220058668124e-19 
-2.7233803320120263e-18 7.088122267382555e-18 6.02906868456164e-06 
7.088122267382555e-18 6.516915535679923e-19 1.1544534015805693e-18 
6.02906868456164e-06 1.1544534015805693e-18 1.304033270034511e-19 
1.2265037076242246e-19 8.973889136763599e-20 6.029068684562635e-06 
8.973889136763599e-20 -1.0604226496448229e-18 2.453486296581839e-18 
6.029068684562635e-06 2.453486296581839e-18 2.60249213110598e-19 
2.32629128633921e-18 5.036338961600305e-19 6.029068684557383e-06 
5.036338961600305e-19 -1.2398565404725707e-18 1.0076449033009217e-18 
6.029068684557383e-06 1.0076449033009217e-18 -4.572161924576837e-19 
2.045753974208586e-18 4.3620773581063975e-18 6.02906868455448e-06 
4.3620773581063975e-18 -3.4206080900618195e-18 -8.203496179365876e-20 
6.02906868455448e-06 -8.203496179365876e-20 -1.3544449484134644e-18 
5.549759870410178e-19 4.9444861870574936e-18 6.029068684552721e-06 
4.9444861870574936e-18 -2.1644512272434728e-18 -4.1722223680404754e-18 
6.029068684552721e-06 -4.1722223680404754e-18 -1.5190046869424314e-18 
1.378969638130001e-18 -1.301911156266397e-18 6.02906868455296e-06 
-1.301911156266397e-18 1.314068818955371e-18 -2.8129232949745153e-18 
6.02906868455296e-06 -2.8129232949745153e-18 -1.843588870891586e-18 
-2.6136048620478687e-18 -6.399165631728272e-19 6.029068684554827e-06 
-6.399165631728272e-19 3.1164726509878454e-18 1.205198897124687e-18 
6.029068684554827e-06 1.205198897124687e-18 5.2008507229840185e-20 
-1.6954211472242079e-18 -4.173062302809931e-18 6.029068684560163e-06 
-4.173062302809931e-18 1.3403755486689552e-18 2.2991014356284633e-18 
6.029068684560163e-06 2.2991014356284633e-18 1.3412757666717799e-18 
-1.2739375526704646e-19 3.028642604568849e-18 6.02906868455907e-06 
3.028642604568849e-18 -1.9483766618262138e-18 5.947709163700118e-19 
6.02906868455907e-06 5.947709163700118e-19 2.6331387645442266e-19 
1.220405070403996e-18 2.529747918479718e-19 6.02906868455748e-06 
2.529747918479718e-19 -1.1589123316820106e-18 -3.2841072490701125e-18 
6.02906868455748e-06 -3.2841072490701125e-18 -8.521783615595985e-19 
1.1634844563485065e-18 3.7178619213815543e-19 6.029068684558237e-06 
3.7178619213815543e-19 1.4672527477725721e-18 -5.065754213828741e-18 
6.029068684558237e-06 -5.065754213828741e-18 -7.877887053664189e-19 
-2.886688284242657e-19 6.715958722844548e-19 6.029068684561888e-06 
6.715958722844548e-19 1.7295449189952998e-18 4.480486533859315e-19 
6.029068684561888e-06 4.480486533859315e-19 -1.0549567653638212e-19 
2.1785687403380605e-18 -7.519428660904673e-18 6.0290686845563676e-06 
-7.519428660904673e-18 4.344078513076162e-19 1.6130771371063634e-18 
6.0290686845563676e-06 1.6130771371063634e-18 -7.837598026148698e-19 
5.542983606832146e-19 -1.656706928720654e-19 6.0290686845523924e-06 
-1.656706928720654e-19 3.5349498505680337e-19 4.745899080890405e-18 
6.0290686845523924e-06 4.745899080890405e-18 -1.1784322613138243e-18 
5.271933063710762e-19 -6.675311986158916e-19 6.029068684551637e-06 
-6.675311986158916e-19 1.0615546232944317e-18 -1.1101480989426826e-18 
6.029068684551637e-06 -1.1101480989426826e-18 -2.306143376479204e-19 
-7.724940478959204e-20 8.394624220171758e-19 6.029068684552524e-06 
8.394624220171758e-19 3.9889296441153e-19 -4.582658868249929e-18 
6.029068684552524e-06 -4.582658868249929e-18 2.2342554371044103e-19 
-8.056977394282903e-19 8.317523112861388e-19 6.029068684557672e-06 
8.317523112861388e-19 7.125712788323971e-20 -5.32719588689067e-18 
6.029068684557672e-06 -5.32719588689067e-18 8.078339024733207e-19 
-2.1507860596681193e-18 -3.157376761372755e-18 6.029068684560851e-06 
-3.157376761372755e-18 2.91432920986273e-19 -5.347661593826932e-18 
6.029068684560851e-06 -5.347661593826932e-18 8.167018031010222e-19 
1.2115959277525509e-18 -1.626701525865495e-18 6.0290686845559585e-06 
-1.626701525865495e-18 6.436369463873903e-19 5.59901583858766e-20 
6.0290686845559585e-06 5.59901583858766e-20 -5.329917897241573e-19 
-1.5768365346086058e-18 -1.0243923369649547e-19 6.0290686845581065e-06 
-1.0243923369649547e-19 -6.243395848268439e-20 4.137020971811354e-18 
6.0290686845581065e-06 4.137020971811354e-18 -6.736917198117869e-19 
-5.902125576467959e-19 -8.530914165452321e-19 6.029068684556895e-06 
-8.530914165452321e-19 9.55014240387583e-19 8.533683444140939e-19 
6.029068684556895e-06 8.533683444140939e-19 -1.779602833369033e-19 
-3.5372095877339536e-19 -9.539198354170551e-20 6.045572418844543e-06 
-9.539198354170551e-20 -1.976606987133518e-18 -2.8056825358881234e-18 
6.045572418844543e-06 -2.8056825358881234e-18 7.4759728203846455e-19 
1.8038413644727575e-18 2.11137946110813e-18 6.0455724188451905e-06 
2.11137946110813e-18 -1.8689437079837883e-18 -6.755358828506861e-19 
6.0455724188451905e-06 -6.755358828506861e-19 2.1521227496387515e-19 
3.198396408832241e-19 -6.33464822038779e-18 6.04557241884659e-06 
-6.33464822038779e-18 9.416807441182946e-20 -1.835062514173613e-18 
6.04557241884659e-06 -1.835062514173613e-18 -4.641959653480851e-19 
-1.785545452812065e-18 -4.926449067096943e-18 6.045572418848635e-06 
-4.926449067096943e-18 -1.6134436335987717e-19 -1.5402627615644244e-18 
6.045572418848635e-06 -1.5402627615644244e-18 1.09185394633106e-19 
5.488773498207882e-20 -4.715652751482081e-18 6.045572418848204e-06 
-4.715652751482081e-18 -7.886637009023649e-20 -7.513132059990036e-19 
6.045572418848204e-06 -7.513132059990036e-19 1.5930337547697868e-19 
2.568203896075037e-19 9.044368014668907e-19 6.0455724188507776e-06 
9.044368014668907e-19 1.3008237374468653e-18 1.185993505776946e-18 
6.0455724188507776e-06 1.185993505776946e-18 2.828035029826011e-19 
1.4325021203964726e-18 -3.2637708536407325e-18 6.045572418848345e-06 
-3.2637708536407325e-18 4.707687751696519e-19 -1.9947058746157068e-19 
6.045572418848345e-06 -1.9947058746157068e-19 -2.678972319198036e-19 
-6.159623592433263e-19 -8.89902093267454e-18 6.045572418846327e-06 
-8.89902093267454e-18 -2.9644391313967003e-19 -2.0522604943744198e-18 
6.045572418846327e-06 -2.0522604943744198e-18 -1.8357514680682062e-19 
-1.4582519219930038e-18 -5.965494701331566e-19 6.045572418846363e-06 
-5.965494701331566e-19 6.34279794902519e-19 3.8963602027871225e-19 
6.045572418846363e-06 3.8963602027871225e-19 3.300241441602017e-19 
-6.342582709040202e-19 -1.1717788252347975e-18 6.04557241884235e-06 
-1.1717788252347975e-18 2.056108925558389e-18 -1.9294656645690943e-18 
6.04557241884235e-06 -1.9294656645690943e-18 8.120557863499452e-20 
7.826584432629735e-19 -2.3290182155838195e-18 6.045572418846803e-06 
-2.3290182155838195e-18 1.1774875661043345e-18 -4.289077960182829e-19 
6.045572418846803e-06 -4.289077960182829e-19 -9.121675293451591e-20 
1.6940658945086007e-20 1.9459794360097645e-18 6.045572418845464e-06 
1.9459794360097645e-18 1.3606596023877072e-18 2.2273848624459027e-18 
6.045572418845464e-06 2.2273848624459027e-18 -6.097296581497691e-19 
1.4453770211947386e-18 -2.337080921266247e-18 6.045572418844181e-06 
-2.337080921266247e-18 -8.723510072658528e-19 -3.808905744697565e-18 
6.045572418844181e-06 -3.808905744697565e-18 1.4870364062212678e-19 
1.3891340334970526e-19 1.4043615976499535e-18 6.045572418848789e-06 
1.4043615976499535e-18 -1.2559401056213297e-18 -4.174829295779144e-18 
6.045572418848789e-06 -4.174829295779144e-18 -2.1279470640027743e-19 
-3.5846434327801975e-19 5.4798658598074525e-18 6.045572418845555e-06 
5.4798658598074525e-18 1.0371700578996666e-18 -8.487721048729537e-19 
6.045572418845555e-06 -8.487721048729537e-19 -6.281102563047636e-19 
-1.2332799712022567e-19 3.486735571199646e-18 6.045572418847454e-06 
3.486735571199646e-18 6.468250031429101e-19 2.4383715448311e-18 
6.045572418847454e-06 2.4383715448311e-18 8.395404042103711e-19 
-1.5890338090490674e-18 -8.771004042689572e-19 6.0455724188486574e-06 
-8.771004042689572e-19 -9.664221295848148e-19 3.746638049113507e-19 
6.0455724188486574e-06 3.746638049113507e-19 -1.5089047850913588e-21 
-2.940898392866929e-19 -5.530860876106065e-18 6.0455724188449246e-06 
-5.530860876106065e-18 -1.1735882308619517e-18 -1.5467560276952484e-18 
6.0455724188449246e-06 -1.5467560276952484e-18 -3.233244227566976e-21 
7.650401579600839e-19 1.1198080142471827e-18 6.045572418844908e-06 
1.1198080142471827e-18 -1.090476659219554e-18 -8.654485177795917e-19 
6.045572418844908e-06 -8.654485177795917e-19 1.1399515051602118e-18 
-7.250602028496842e-20 -4.099384024886209e-18 6.045572418843137e-06 
-4.099384024886209e-18 5.615465256486615e-19 -1.3984761537444844e-18 
6.045572418843137e-06 -1.3984761537444844e-18 5.540364363252099e-19 
8.131516293641283e-19 4.361902550727194e-18 6.045572418851153e-06 
4.361902550727194e-18 -1.822704675748706e-18 -1.878014026983446e-18 
6.045572418851153e-06 -1.878014026983446e-18 -2.8051838547684084e-19 
1.8722816266109055e-18 5.847629904010455e-18 6.0455724188505e-06 
5.847629904010455e-18 -1.7145740539674872e-18 -2.3697221684680428e-18 
6.0455724188505e-06 -2.3697221684680428e-18 -2.5163512719088366e-19 
1.1228268748803005e-18 9.95726796704803e-19 6.045572418848687e-06 
9.95726796704803e-19 -4.635110629229954e-19 -1.416704220709973e-18 
6.045572418848687e-06 -1.416704220709973e-18 -6.455966302765613e-19 
7.521652571618202e-20 -1.2383049768801022e-18 6.0455724188523395e-06 
-1.2383049768801022e-18 5.264246205390072e-19 2.640097370479162e-19 
6.0455724188523395e-06 2.640097370479162e-19 -1.1444943079075216e-18 
9.263152311173032e-19 2.5197542035722288e-18 6.045572418846915e-06 
2.5197542035722288e-18 -5.381842039631495e-19 -6.051896111209864e-19 
6.045572418846915e-06 -6.051896111209864e-19 -6.448430508594625e-19 
-1.3891340334970526e-19 4.4774876628458264e-18 6.0455724188461155e-06 
4.4774876628458264e-18 5.833090430021515e-19 2.2088621826478176e-18 
6.0455724188461155e-06 2.2088621826478176e-18 4.6038302172166115e-19 
-2.452329788890651e-18 3.412859295898251e-18 6.04557241884701e-06 
3.412859295898251e-18 1.2119798816281532e-18 9.693599152201801e-19 
6.04557241884701e-06 9.693599152201801e-19 1.1715870497509763e-18 
-3.1143707404646113e-18 -1.360686698619334e-18 6.045572418849165e-06 
-1.360686698619334e-18 1.3797118517424644e-18 -1.2490074630677114e-19 
6.045572418849165e-06 -1.2490074630677114e-19 1.019809004108512e-18 
7.006656539687571e-19 -2.917900123264184e-19 6.04557241885149e-06 
-2.917900123264184e-19 -6.9496879931756e-19 5.632680270028721e-18 
6.04557241885149e-06 5.632680270028721e-18 6.958854420857463e-19 
1.4650281855710378e-18 2.3206835753472665e-18 6.045572418846378e-06 
2.3206835753472665e-18 -3.706226107142259e-18 3.3429874462738336e-18 
6.045572418846378e-06 3.3429874462738336e-18 2.1245183449209042e-19 
3.3813555254391654e-19 1.3460560290055625e-18 6.04557241884741e-06 
1.3460560290055625e-18 -2.952684042257374e-19 -6.725864858379176e-19 
6.04557241884741e-06 -6.725864858379176e-19 -6.855078714977087e-19 
1.4372455049010962e-18 -3.54063649600251e-18 6.045572418846996e-06 
-3.54063649600251e-18 8.008433874177675e-19 -3.0684249652698474e-18 
6.045572418846996e-06 -3.0684249652698474e-18 -1.4598821419053195e-18 
1.6852567518571563e-18 -4.558377243067987e-18 6.045572418844013e-06 
-4.558377243067987e-18 3.303956730178233e-19 -2.2622613743152114e-18 
6.045572418844013e-06 -2.2622613743152114e-18 -1.704162096120311e-18 
-9.622294280808852e-19 -3.2655116503908626e-18 6.045572418843843e-06 
-3.2655116503908626e-18 8.306228421593294e-19 -7.743575650645963e-19 
6.045572418843843e-06 -7.743575650645963e-19 -2.4612608965316587e-19 
1.938011383317839e-18 -1.145600915113671e-18 6.045572418845925e-06 
-1.145600915113671e-18 -3.1989559928095063e-19 5.408944568744911e-19 
6.045572418845925e-06 5.408944568744911e-19 4.3302148497218057e-19 
6.857578740970811e-19 -1.1831792264881728e-18 6.045572418847139e-06 
-1.1831792264881728e-18 -2.48184337407557e-18 2.0316059210023983e-18 
6.045572418847139e-06 2.0316059210023983e-18 3.4063595111656234e-19 
-1.2346352239178677e-18 -3.0948076125471533e-18 6.045572418847095e-06 
-3.0948076125471533e-18 -1.5055816994694792e-18 1.227963842459769e-18 
6.045572418847095e-06 1.227963842459769e-18 1.3458386033508403e-18 
-3.239053990300444e-18 -9.433517201173497e-19 6.0455724188496425e-06 
-9.433517201173497e-19 5.556769192680155e-19 6.929532613948157e-19 
6.0455724188496425e-06 6.929532613948157e-19 1.818830757926251e-18 
-2.4353891299455646e-18 -2.9968141128642624e-18 6.045572418849965e-06 
-2.9968141128642624e-18 5.193074762269149e-19 -2.5664968832225237e-18 
6.045572418849965e-06 -2.5664968832225237e-18 8.368202448154592e-19 
6.925341376751163e-19 -5.351659492569429e-18 6.045572418847464e-06 
-5.351659492569429e-18 7.107055234933124e-19 -3.003718866250247e-18 
6.045572418847464e-06 -3.003718866250247e-18 -2.274481119638682e-19 
-8.700722434196172e-19 6.9074039291861924e-18 6.045572418840601e-06 
6.9074039291861924e-18 3.461340780737073e-18 3.02109634324293e-18 
6.045572418840601e-06 3.02109634324293e-18 -5.251101026451813e-19 
-1.1384122811097766e-19 6.387486147918736e-19 6.045572418844135e-06 
6.387486147918736e-19 9.959608927357536e-19 1.4973569876776072e-19 
6.045572418844135e-06 1.4973569876776072e-19 -1.757162127327421e-18 
1.3708381218363594e-18 -1.3036332505373696e-18 6.0455724188411925e-06 
-1.3036332505373696e-18 -4.984116433175169e-19 -1.6576131778794167e-18 
6.0455724188411925e-06 -1.6576131778794167e-18 -1.7479949922398143e-18 
6.403569081242511e-19 -4.116073104666384e-18 6.045572418843595e-06 
-4.116073104666384e-18 -1.1003266907822124e-18 9.254380067678783e-19 
6.045572418843595e-06 9.254380067678783e-19 -1.984919908105326e-19 
9.825582188149884e-19 -1.665484769627706e-18 6.045572418843783e-06 
-1.665484769627706e-18 -6.4257130899920035e-19 1.4499053505464474e-18 
6.045572418843783e-06 1.4499053505464474e-18 4.813454866397659e-19 
1.3891340334970526e-18 3.182600927285136e-19 6.045572418841283e-06 
3.182600927285136e-19 -2.1580156967856158e-19 -8.123821860341252e-19 
6.045572418841283e-06 -8.123821860341252e-19 5.451874126473559e-19 
-4.0725344103986776e-19 1.6995480206261286e-18 6.045572418846641e-06 
1.6995480206261286e-18 -5.065136169827127e-19 1.775256077617036e-18 
6.045572418846641e-06 1.775256077617036e-18 3.3270893468948753e-19 
-2.017971293538645e-18 -2.6642751369125028e-18 6.0455724188458885e-06 
-2.6642751369125028e-18 -1.0631697987677706e-19 4.751383363392409e-18 
6.0455724188458885e-06 4.751383363392409e-18 1.341617199845395e-18 
-3.254639396529924e-18 -3.39066532730891e-18 6.045572418846082e-06 
-3.39066532730891e-18 7.198746025642637e-19 3.7545412178636824e-18 
6.045572418846082e-06 3.7545412178636824e-18 1.9055124920292008e-18 
3.5439858513119934e-19 5.7052231839620956e-18 6.045572418849552e-06 
5.7052231839620956e-18 2.9990426021009813e-19 2.611372458447395e-19 
6.045572418849552e-06 2.611372458447395e-19 5.15311324118661e-19 
-1.5490538539386646e-18 8.2726278947632235e-19 6.04557241884256e-06 
8.2726278947632235e-19 2.0212951463614316e-18 3.4527458122785468e-19 
6.04557241884256e-06 3.4527458122785468e-19 8.621928754372854e-19 
2.778268066994105e-19 -2.9715380774845388e-18 6.045572418847481e-06 
-2.9715380774845388e-18 5.616580330423646e-19 -2.6974059331465275e-18 
6.045572418847481e-06 -2.6974059331465275e-18 -3.250904459153583e-19 
1.2258260812664237e-18 4.492564376664315e-20 6.045572418845724e-06 
4.492564376664315e-20 -7.303993220934492e-19 2.79682302335051e-19 
6.045572418845724e-06 2.79682302335051e-19 -1.8784733185800793e-18 
6.16639985601131e-19 2.6020556422363147e-18 6.045572418847339e-06 
2.6020556422363147e-18 -1.4651270144825317e-19 -1.343595122224295e-18 
6.045572418847339e-06 -1.343595122224295e-18 -1.2634050445356507e-18 
2.097253577401648e-18 2.5524542294806074e-18 6.045572418843845e-06 
2.5524542294806074e-18 6.852019011954372e-20 -1.0064947756175825e-18 
6.045572418843845e-06 -1.0064947756175825e-18 2.8394480580629554e-20 
7.318364664277201e-20 2.11382565036615e-18 6.045572418837328e-06 
2.11382565036615e-18 -1.7029093672170439e-18 2.533215410424508e-18 
6.045572418837328e-06 2.533215410424508e-18 1.0567967433824578e-18 
-1.3992984288641042e-18 7.219057405759865e-19 6.045572418841745e-06 
7.219057405759865e-19 -1.2631034234623465e-18 1.6278582973495724e-18 
6.045572418841745e-06 1.6278582973495724e-18 1.442279209750658e-18 
-2.7172816947917955e-18 -2.242095860340417e-18 6.045572418846451e-06 
-2.242095860340417e-18 -3.0214662527509817e-19 1.4395041447839744e-18 
6.045572418846451e-06 1.4395041447839744e-18 1.2353444487727685e-18 
-6.417121608398582e-19 -3.504768716128054e-18 6.045572418848377e-06 
-3.504768716128054e-18 -1.8974991190572535e-19 3.581964956992505e-18 
6.045572418848377e-06 3.581964956992505e-18 1.2311619160228906e-18 
1.1655173354219203e-19 -3.864412930763597e-18 6.045572418847951e-06 
-3.864412930763597e-18 -7.343952188613144e-20 -1.3275134095328386e-18 
6.045572418847951e-06 -1.3275134095328386e-18 9.819094615071671e-19 
-3.4965520062657456e-19 -1.2449314913436001e-18 6.0455724188484965e-06 
-1.2449314913436001e-18 1.1458931320553846e-18 3.2805373866962535e-19 
6.0455724188484965e-06 3.2805373866962535e-19 6.573286509286955e-19 
1.816716265271023e-18 1.976912641520523e-20 6.045572418848149e-06 
1.976912641520523e-20 -9.50932777348965e-19 -5.493138922322597e-19 
6.045572418848149e-06 -5.493138922322597e-19 -1.0084408932093289e-18 
1.499587129819013e-18 -8.69065949436e-19 6.045572418847873e-06 
-8.69065949436e-19 -3.5742794195955767e-19 -1.1401532576878767e-18 
6.045572418847873e-06 -1.1401532576878767e-18 -8.193815723693056e-19 
-5.617522506190518e-19 -2.565563150250291e-19 6.045572418846329e-06 
-2.565563150250291e-19 -7.559105906117054e-19 -8.611991987283837e-19 
6.045572418846329e-06 -8.611991987283837e-19 -5.3295728468185957e-20 
2.131812521649624e-18 -3.0628756215521226e-18 6.045572418847533e-06 
-3.0628756215521226e-18 -3.4022134317427585e-19 1.5061318124222034e-18 
6.045572418847533e-06 1.5061318124222034e-18 9.847532553054143e-20 
-1.5422775903606302e-18 -2.8338151572266755e-18 6.045572418846397e-06 
-2.8338151572266755e-18 6.714800073670453e-19 5.579318405769439e-19 
6.045572418846397e-06 5.579318405769439e-19 6.656040041735035e-19 
-4.1674021004911577e-19 2.108754264729662e-18 6.045572418844099e-06 
2.108754264729662e-18 -5.2403228212954635e-19 -3.0176666899834406e-19 
6.045572418844099e-06 -3.0176666899834406e-19 1.877159669692526e-19 
-8.9040103415372e-19 2.358853644594448e-18 6.045572418845943e-06 
2.358853644594448e-18 -1.4477547029794445e-18 1.371956113905255e-18 
6.045572418845943e-06 1.371956113905255e-18 1.1887851403328382e-18 
-1.0354130747236568e-18 1.9878653489472756e-18 6.045572418846458e-06 
1.9878653489472756e-18 -1.489428270913907e-19 -7.521246455787353e-20 
6.045572418846458e-06 -7.521246455787353e-20 1.7000218200089413e-18 
-3.230922474006803e-18 2.527385192705972e-18 6.0455724188480095e-06 
2.527385192705972e-18 7.799272203010526e-19 -2.4633587993812602e-18 
6.0455724188480095e-06 -2.4633587993812602e-18 1.0315076682392987e-18 
-6.017322057294547e-19 -4.770308227650105e-18 6.0455724188490555e-06 
-4.770308227650105e-18 -1.3086191888134622e-18 -5.744455252821879e-19 
6.0455724188490555e-06 -5.744455252821879e-19 2.3675651634817267e-19 
3.0066281495738656e-18 -4.156960578035232e-18 6.045572418847731e-06 
-4.156960578035232e-18 -2.2149768057139566e-18 1.432635783110531e-19 
6.045572418847731e-06 1.432635783110531e-19 -4.767463165909316e-19 
6.518765562069091e-19 -1.4016480859743093e-18 6.0455724188490445e-06 
-1.4016480859743093e-18 -1.2467727883038007e-18 3.5885609014784365e-19 
6.0455724188490445e-06 3.5885609014784365e-19 -4.3488331587844845e-19 
8.931115395849344e-19 2.153660806983026e-18 6.04557241884732e-06 
2.153660806983026e-18 5.278652667725769e-19 6.136535047410455e-19 
6.04557241884732e-06 6.136535047410455e-19 1.9086398839645903e-19 
9.351243737687472e-19 3.3656969871097155e-18 6.045572418845052e-06 
3.3656969871097155e-18 3.9309947454591695e-19 7.933407418298484e-19 
6.045572418845052e-06 7.933407418298484e-19 3.6355245782513425e-20 
-2.1609504550351713e-18 1.742921795569422e-18 6.045572418847845e-06 
1.742921795569422e-18 -1.788138734724488e-20 3.5025757228996003e-19 
6.045572418847845e-06 3.5025757228996003e-19 1.3925117453997304e-19 
-2.7782680669940435e-20 -5.381157316679976e-19 6.045572418846212e-06 
-5.381157316679976e-19 -4.56080878822951e-19 2.120129743187638e-18 
6.045572418846212e-06 2.120129743187638e-18 3.4653833311032815e-19 
-7.589415207398562e-20 -2.5556597528120586e-18 6.045572418846577e-06 
-2.5556597528120586e-18 -6.941987519265747e-19 3.484525938032766e-18 
6.045572418846577e-06 3.484525938032766e-18 1.8705189676549855e-19 
-5.183841637196318e-19 -2.1454025274424345e-18 6.045572418843471e-06 
-2.1454025274424345e-18 -1.9737818406593745e-19 4.002074900730657e-18 
6.045572418843471e-06 4.002074900730657e-18 2.0032289653090917e-19 
2.710505431213761e-20 1.8630449212105284e-18 6.045572418844926e-06 
1.8630449212105284e-18 -3.406477013670531e-19 4.770532164854894e-18 
6.045572418844926e-06 4.770532164854894e-18 3.4466893278247575e-19 
8.809142651444724e-20 1.6203428750101244e-18 6.045572418847037e-06 
1.6203428750101244e-18 -1.4088948546948846e-18 -4.24648153582496e-19 
6.045572418847037e-06 -4.24648153582496e-19 -1.1598006584685339e-18 
8.524539581167277e-19 3.062218623357748e-18 6.045572418844709e-06 
3.062218623357748e-18 -7.31116442537587e-19 -1.285484473019877e-18 
6.045572418844709e-06 -1.285484473019877e-18 -8.834962930118836e-19 
-1.877025011115525e-19 9.951083529193915e-19 6.045572418847898e-06 
9.951083529193915e-19 -1.7478932460960186e-18 -4.017932214564552e-18 
6.045572418847898e-06 -4.017932214564552e-18 3.607206783200341e-19 
3.3203691532368573e-19 -1.0837527645576799e-18 6.045572418846117e-06 
-1.0837527645576799e-18 -1.907976747769017e-18 -7.089543262451826e-19 
6.045572418846117e-06 -7.089543262451826e-19 -7.294040621165664e-20 
2.0620170067958684e-18 -4.015768703617936e-18 6.045572418842804e-06 
-4.015768703617936e-18 -1.9505877589673922e-19 2.4999675527430955e-18 
6.045572418842804e-06 2.4999675527430955e-18 -4.3441135158311875e-19 
-1.5510867330120746e-18 -2.8074105514823936e-19 6.0455724188454734e-06 
-2.8074105514823936e-19 9.772816236487553e-19 3.8873154240804874e-18 
6.0455724188454734e-06 3.8873154240804874e-18 5.736886938256225e-19 
-3.3203691532368573e-19 1.6269714840725685e-18 6.0455724188440386e-06 
1.6269714840725685e-18 7.746458517837491e-19 6.314409596605199e-18 
6.0455724188440386e-06 6.314409596605199e-18 5.331255175557814e-19 
-6.417121608398582e-19 2.739133995771558e-18 6.0455724188469795e-06 
2.739133995771558e-18 -7.493410603379002e-19 4.878537095510905e-19 
6.0455724188469795e-06 4.878537095510905e-19 -1.1539924789585625e-18 
-1.9651164376299768e-19 3.533284951801522e-18 6.0455724188436184e-06 
3.533284951801522e-18 -2.882672556211767e-19 -1.782417563050552e-18 
6.0455724188436184e-06 -1.782417563050552e-18 -6.130304973567417e-19 
2.265304914136901e-18 2.2970031119519966e-20 6.045572418843079e-06 
2.2970031119519966e-20 1.726042619047872e-18 2.79756399768982e-18 
6.045572418843079e-06 2.79756399768982e-18 2.233441728239019e-19 
-1.927169361592984e-18 -4.0503479131979426e-18 6.0455724188493545e-06 
-4.0503479131979426e-18 2.9107852377116778e-18 -4.916053903308496e-19 
6.0455724188493545e-06 -4.916053903308496e-19 -8.827279809766294e-19 
-8.002767285658631e-19 -5.245356587041147e-18 6.045572418845692e-06 
-5.245356587041147e-18 1.450019788653144e-18 -1.4592735721559783e-18 
6.045572418845692e-06 -1.4592735721559783e-18 -8.140736032142636e-19 
-2.271403551357132e-18 -2.872991007839866e-18 6.0455724188464145e-06 
-2.872991007839866e-18 2.2589587201928042e-18 -5.19037134925831e-19 
6.0455724188464145e-06 -5.19037134925831e-19 5.523666080429804e-19 
8.680393643462064e-19 1.0774179760997444e-18 6.045572418845631e-06 
1.0774179760997444e-18 1.4496951511980117e-18 -6.783744234414431e-20 
6.045572418845631e-06 -6.783744234414431e-20 1.7142481342784389e-19 
1.3037531124138197e-18 7.310505043948514e-19 6.0455724188451295e-06 
7.310505043948514e-19 -1.4414118452449733e-18 -1.137356775826855e-18 
6.0455724188451295e-06 -1.137356775826855e-18 -2.097911698258551e-19 
2.415060339211461e-18 2.6853448106201884e-18 6.04557241884628e-06 
2.6853448106201884e-18 -1.654770454718379e-18 -2.3523606963501413e-18 
6.04557241884628e-06 -2.3523606963501413e-18 1.514423621013795e-19 
-1.674414730132301e-18 2.2913184282396647e-19 6.0455724188453404e-06 
2.2913184282396647e-19 5.343658972073816e-19 1.4482684895687266e-18 
6.0455724188453404e-06 1.4482684895687266e-18 -1.1759070043810412e-18 
-1.7753810574450166e-19 -2.838103369874032e-18 6.045572418847008e-06 
-2.838103369874032e-18 1.6499945175927623e-18 1.4624959561968721e-18 
6.045572418847008e-06 1.4624959561968721e-18 -1.0253501407155895e-18 
-6.959222694641327e-19 1.4957718384908365e-18 6.045572418846556e-06 
1.4957718384908365e-18 7.259573241625204e-19 -6.248549535987055e-19 
6.045572418846556e-06 -6.248549535987055e-19 6.101568383978775e-19 
-4.0047717746183335e-19 -8.68370501121069e-19 6.045572418849931e-06 
-8.68370501121069e-19 3.9912977029133383e-19 -1.9272931777310743e-19 
6.045572418849931e-06 -1.9272931777310743e-19 4.1065385965796194e-19 
-1.2495430037895437e-18 -9.46700379488331e-19 -4.530298287072247e-06 
-9.46700379488331e-19 -1.4116677443072576e-18 2.2161551533779383e-18 
-4.530298287072247e-06 2.2161551533779383e-18 -1.7506393124766215e-19 
1.529402689562365e-18 -1.66506076483919e-18 -4.530298287073356e-06 
-1.66506076483919e-18 -1.659788246084667e-18 -4.6872643664750156e-20 
-4.530298287073356e-06 -4.6872643664750156e-20 -8.837115625312344e-20 
1.7625061566467483e-18 -5.060124255591695e-18 -4.530298287073449e-06 
-5.060124255591695e-18 -3.3031603039650817e-19 7.892934257577729e-19 
-4.530298287073449e-06 7.892934257577729e-19 -2.355639368723669e-19 
-1.026603932072212e-18 -2.0382780242871138e-18 -4.530298287073675e-06 
-2.0382780242871138e-18 -7.797392380369562e-19 2.71169652576198e-18 
-4.530298287073675e-06 2.71169652576198e-18 -7.156104498880548e-19 
4.512991542970914e-19 1.5224997910155988e-19 -4.530298287074193e-06 
1.5224997910155988e-19 -6.973546436132253e-19 3.2043523954791866e-18 
-4.530298287074193e-06 3.2043523954791866e-18 -1.9226291431900666e-19 
-6.545870616381235e-19 8.967387855063327e-19 -4.530298287074468e-06 
8.967387855063327e-19 1.1567469863783454e-18 1.681961488759933e-18 
-4.530298287074468e-06 1.681961488759933e-18 7.011050976419843e-20 
-2.378468515890077e-19 -2.451774678962053e-18 -4.530298287076549e-06 
-2.451774678962053e-18 1.5673511546213904e-18 7.232125017257806e-19 
-4.530298287076549e-06 7.232125017257806e-19 2.6453031499147884e-19 
-2.3683041205230237e-18 -5.540186647522188e-18 -4.530298287076895e-06 
-5.540186647522188e-18 1.2992495544707986e-18 1.1208508364607823e-18 
-4.530298287076895e-06 1.1208508364607823e-18 5.407985015587732e-19 
-5.102526474259902e-19 -7.313425642834769e-20 -4.530298287076053e-06 
-7.313425642834769e-20 1.9070155773139031e-19 1.5617241026130388e-18 
-4.530298287076053e-06 1.5617241026130388e-18 -2.4051868112882573e-19 
-3.8624702394796095e-19 -5.407163081124413e-18 -4.530298287073681e-06 
-5.407163081124413e-18 8.84770884582259e-19 2.8996834759101906e-18 
-4.530298287073681e-06 2.8996834759101906e-18 -3.8580655375817593e-19 
7.270930819230911e-19 2.4172781473237825e-18 -4.5302982870718384e-06 
2.4172781473237825e-18 7.823638507454672e-19 2.9329830019585917e-18 
-4.5302982870718384e-06 2.9329830019585917e-18 -7.217846143873844e-19 
1.174326478073362e-18 2.4436700988810378e-18 -4.530298287071483e-06 
2.4436700988810378e-18 1.0335122542185759e-19 5.389325736936508e-19 
-4.530298287071483e-06 5.389325736936508e-19 -1.3589509336528119e-18 
1.308496496918443e-18 2.088009323196173e-18 -4.5302982870718994e-06 
2.088009323196173e-18 -9.515680281748365e-19 1.0746223762926477e-18 
-4.5302982870718994e-06 1.0746223762926477e-18 -8.255179380819767e-19 
1.1031757105040012e-18 3.4526434937861383e-19 -4.5302982870716165e-06 
3.4526434937861383e-19 4.563439988683741e-19 1.6529148339508716e-18 
-4.5302982870716165e-06 1.6529148339508716e-18 -3.7096856761814836e-19 
-1.4236929777450282e-18 3.299492442192527e-18 -4.530298287071828e-06 
3.299492442192527e-18 8.730734010564926e-19 2.3223386425694163e-18 
-4.530298287071828e-06 2.3223386425694163e-18 -1.424860415725996e-19 
5.827586677109602e-20 2.8851186840791607e-18 -4.530298287073583e-06 
2.8851186840791607e-18 4.804868712510032e-19 7.503545307019635e-20 
-4.530298287073583e-06 7.503545307019635e-20 2.279992687634559e-19 
-2.2327788489623357e-18 -3.431153851665827e-18 -4.530298287074846e-06 
-3.431153851665827e-18 -8.0103654731462e-19 3.134635540555913e-19 
-4.530298287074846e-06 3.134635540555913e-19 8.920575203227325e-19 
-2.127746763502801e-19 -2.3100779972778684e-18 -4.530298287071952e-06 
-2.3100779972778684e-18 -1.2697150686439302e-18 2.714752774227728e-18 
-4.530298287071952e-06 2.714752774227728e-18 1.2399515144061472e-18 
-8.117963766485219e-19 2.8444173334486283e-18 -4.530298287070639e-06 
2.8444173334486283e-18 -2.945762375079835e-19 -2.6925505948100506e-19 
-4.530298287070639e-06 -2.6925505948100506e-19 3.746128939512523e-19 
-6.030874584450603e-20 -2.631159826997067e-18 -4.530298287072497e-06 
-2.631159826997067e-18 4.779149050454002e-19 -2.1855059957377774e-18 
-4.530298287072497e-06 -2.1855059957377774e-18 -1.6114946166661867e-19 
9.202165938970724e-19 5.171180563474383e-18 -4.5302982870714945e-06 
5.171180563474383e-18 -1.0957102861021256e-18 1.2194752532903663e-18 
-4.5302982870714945e-06 1.2194752532903663e-18 -1.2947769006913251e-18 
1.6561188184716079e-18 6.175106229689833e-19 -4.530298287074533e-06 
6.175106229689833e-19 -4.3115956972213085e-19 2.0189806582480984e-19 
-4.530298287074533e-06 2.0189806582480984e-19 -2.882753276296485e-18 
1.7306577178299867e-18 2.2635410075959767e-18 -4.5302982870782005e-06 
2.2635410075959767e-18 -1.4991812217804586e-19 8.169374189490634e-19 
-4.5302982870782005e-06 8.169374189490634e-19 -1.1848478111807163e-18 
-3.5507621148900255e-19 1.8290848011458283e-18 -4.53029828707485e-06 
1.8290848011458283e-18 -4.374279444403414e-19 2.591885400082449e-18 
-4.53029828707485e-06 2.591885400082449e-18 2.295329469397691e-19 
-4.777265822514254e-19 3.521102354762324e-18 -4.530298287075018e-06 
3.521102354762324e-18 2.2721320696051853e-19 9.378270327600988e-19 
-4.530298287075018e-06 9.378270327600988e-19 2.9676974928325984e-19 
-7.941780913456315e-19 4.6902581994153325e-18 -4.530298287074898e-06 
4.6902581994153325e-18 1.6111515884890323e-19 -9.971569781955735e-19 
-4.530298287074898e-06 -9.971569781955735e-19 9.50287086027889e-19 
-2.1582399496039576e-18 -1.1663590493987158e-19 -4.530298287076108e-06 
-1.1663590493987158e-19 5.201016776009203e-19 1.5441878188577706e-19 
-4.530298287076108e-06 1.5441878188577706e-19 1.262495035561251e-18 
-5.23805174582059e-19 -5.603476074245807e-19 -4.5302982870742e-06 
-5.603476074245807e-19 1.0220498989527473e-18 8.374989917896309e-19 
-4.5302982870742e-06 8.374989917896309e-19 1.4587943906213477e-18 
-1.0570971181733684e-19 2.8341959362413344e-19 -4.530298287071092e-06 
2.8341959362413344e-19 -6.415356006303816e-19 1.4282974797979263e-18 
-4.530298287071092e-06 1.4282974797979263e-18 1.0508833639091612e-19 
3.3068166260807854e-19 2.1941554772623967e-18 -4.530298287073429e-06 
2.1941554772623967e-18 -7.063211085672274e-19 2.0068706460451823e-18 
-4.530298287073429e-06 2.0068706460451823e-18 -5.711327379291353e-19 
-4.323256162785946e-19 -2.7026810323184225e-19 -4.530298287072165e-06 
-2.7026810323184225e-19 1.2954974422165945e-18 4.975904028062555e-20 
-4.530298287072165e-06 4.975904028062555e-20 1.2963795145565674e-19 
4.506215279392878e-19 -5.648782324406427e-18 -4.530298287070195e-06 
-5.648782324406427e-18 2.8927504345695554e-19 -2.288882069318661e-18 
-4.530298287070195e-06 -2.288882069318661e-18 -9.105828642850133e-19 
2.3730475050276474e-18 -4.919590959524089e-18 -4.530298287072514e-06 
-4.919590959524089e-18 7.960516957323879e-19 8.57112122389999e-19 
-4.530298287072514e-06 8.57112122389999e-19 -1.5612590303591776e-18 
-3.991219247462254e-19 -6.989743374397035e-18 -4.530298287071994e-06 
-6.989743374397035e-18 5.872996682473943e-19 9.031819684962033e-19 
-4.530298287071994e-06 9.031819684962033e-19 -8.16482499969784e-19 
7.060866648311843e-19 -2.0006509356308727e-18 -4.530298287074327e-06 
-2.0006509356308727e-18 -2.0798795818147798e-18 6.127308334303443e-19 
-4.530298287074327e-06 6.127308334303443e-19 3.467115732976554e-19 
9.269928574751068e-19 1.0259859302617813e-19 -4.530298287075015e-06 
1.0259859302617813e-19 -2.382058717708641e-18 9.674368254897675e-19 
-4.530298287075015e-06 9.674368254897675e-19 1.120579135190339e-18 
-1.0428669646594952e-18 -1.0424226112647372e-18 -4.530298287076573e-06 
-1.0424226112647372e-18 -1.386617692232626e-18 -8.539484678965834e-19 
-4.530298287076573e-06 -8.539484678965834e-19 1.7041157397306163e-18 
-2.9869769851975648e-18 -8.549455813308258e-19 -4.530298287075291e-06 
-8.549455813308258e-19 2.436799551620477e-19 -1.4454114296457254e-18 
-4.530298287075291e-06 -1.4454114296457254e-18 2.0179798341146628e-18 
-9.805253397415784e-19 -4.289084488833092e-18 -4.530298287071364e-06 
-4.289084488833092e-18 1.0310526333378115e-19 -1.6731147873873077e-18 
-4.530298287071364e-06 -1.6731147873873077e-18 8.377210567431936e-19 
4.2961511084738175e-19 -4.6736151709708616e-18 -4.530298287071301e-06 
-4.6736151709708616e-18 -9.133517041024911e-19 7.305241103136511e-19 
-4.530298287071301e-06 7.305241103136511e-19 4.543368581774005e-20 
-7.453889935837227e-21 2.257731844126834e-18 -4.530298287069108e-06 
2.257731844126834e-18 1.296736203386725e-18 7.080623521857168e-19 
-4.530298287069108e-06 7.080623521857168e-19 4.843317306645629e-19 
-1.0665838871826156e-18 -9.549316487553401e-19 -4.530298287067956e-06 
-9.549316487553401e-19 1.3028528776253467e-18 7.533122909766466e-19 
-4.530298287067956e-06 7.533122909766466e-19 -7.663556576242403e-20 
1.6059744679941534e-18 5.594114088932358e-20 -4.530298287070252e-06 
5.594114088932358e-20 -3.6148162614596133e-19 -9.797004893750199e-19 
-4.530298287070252e-06 -9.797004893750199e-19 -1.1361204831660017e-18 
1.6805133673525319e-18 -1.30112692538947e-18 -4.53029828707055e-06 
-1.30112692538947e-18 -5.838196564418993e-19 6.955661216535095e-19 
-4.53029828707055e-06 6.955661216535095e-19 -1.4786201969934066e-18 
1.0991099523571804e-18 3.155233294199354e-19 -4.530298287071549e-06 
3.155233294199354e-19 1.0627021317973414e-19 2.553906562040958e-18 
-4.530298287071549e-06 2.553906562040958e-18 -1.152467598937714e-18 
5.55653613398821e-19 1.2847738397066656e-18 -4.530298287072923e-06 
1.2847738397066656e-18 -1.931401784312042e-18 3.8758873119192304e-19 
-4.530298287072923e-06 3.8758873119192304e-19 1.0821962980546846e-18 
-6.301925127571995e-19 -2.622843953799617e-18 -4.530298287073048e-06 
-2.622843953799617e-18 -6.154574968800107e-19 -6.891766767540512e-19 
-4.530298287073048e-06 -6.891766767540512e-19 2.3664652602511023e-18 
-1.5395670849294166e-18 -2.9854300938726257e-18 -4.530298287073612e-06 
-2.9854300938726257e-18 -1.6309021518786876e-19 -1.0951803907595742e-18 
-4.530298287073612e-06 -1.0951803907595742e-18 1.6752324337532666e-18 
-2.1473979278791025e-18 -2.0552381120548597e-18 -4.5302982870723145e-06 
-2.0552381120548597e-18 -6.795821737577603e-19 -1.6169560590913988e-19 
-4.5302982870723145e-06 -1.6169560590913988e-19 1.6910026737511315e-18 
1.7957098481791167e-19 3.050955247719233e-18 -4.530298287070833e-06 
3.050955247719233e-18 -7.429058440582847e-19 1.4479263912118006e-18 
-4.530298287070833e-06 1.4479263912118006e-18 1.0510386135109601e-18 
-1.3335686721571701e-18 8.136502821853805e-19 -4.530298287070251e-06 
8.136502821853805e-19 1.3594763752005195e-18 -2.6725018183265084e-18 
-4.530298287070251e-06 -2.6725018183265084e-18 -1.352303224958168e-19 
-6.329030181884138e-19 -6.022931352849618e-19 -4.5302982870732945e-06 
-6.022931352849618e-19 -3.240514650857654e-19 -2.0139859009281955e-18 
-4.5302982870732945e-06 -2.0139859009281955e-18 -2.956085137924039e-19 
2.055918369575638e-18 -8.605254205932808e-19 -4.530298287073332e-06 
-8.605254205932808e-19 -5.705103412728644e-19 -9.707837804347856e-19 
-4.530298287073332e-06 -9.707837804347856e-19 -6.203143712149784e-19 
1.2929110906889637e-18 1.8993435583363394e-18 -4.5302982870732225e-06 
1.8993435583363394e-18 -1.0610039781992152e-18 -4.524231379770424e-19 
-4.5302982870732225e-06 -4.524231379770424e-19 -1.1698947492775541e-18 
9.446111427779956e-19 -9.21200824933767e-19 -4.530298287071859e-06 
-9.21200824933767e-19 3.5686162905259e-19 -8.676026282586122e-19 
-4.530298287071859e-06 -8.676026282586122e-19 -1.4666340369514723e-18 
-1.3843906489924282e-18 -6.348863766764533e-19 -4.530298287071244e-06 
-6.348863766764533e-19 3.657389610905426e-19 2.0877832720495073e-18 
-4.530298287071244e-06 2.0877832720495073e-18 -2.0113622340503933e-20 
-6.769487314456367e-19 1.4823122749041704e-18 -4.530298287071171e-06 
1.4823122749041704e-18 -2.0356247743389505e-18 1.847891589019449e-18 
-4.530298287071171e-06 1.847891589019449e-18 9.968549277840187e-19 
1.0299920638612246e-19 -1.1296626674029014e-18 -4.530298287073287e-06 
-1.1296626674029014e-18 -5.774297298094528e-19 -1.6178437212827463e-18 
-4.530298287073287e-06 -1.6178437212827463e-18 7.838563873842439e-19 
-1.7435326186282515e-18 -3.491896271393516e-18 -4.530298287071938e-06 
-3.491896271393516e-18 1.3672035307045813e-18 -1.014189883865551e-18 
-4.530298287071938e-06 -1.014189883865551e-18 3.03448876277866e-19 
4.0657581468206416e-19 -4.2882978693358345e-18 -4.530298287073506e-06 
-4.2882978693358345e-18 1.2999038579485194e-19 2.6545063331737164e-18 
-4.530298287073506e-06 2.6545063331737164e-18 -2.201144285741648e-19 
-1.4284363622496518e-18 -3.105396071180541e-18 -4.530298287073182e-06 
-3.105396071180541e-18 -7.948452236643814e-20 -1.479645426134404e-18 
-4.530298287073182e-06 -1.479645426134404e-18 -1.6835977185936901e-19 
-7.724940478959281e-20 1.4715273023872705e-18 -4.5302982870760025e-06 
1.4715273023872705e-18 -1.4430484882443834e-18 -1.6021392649408247e-18 
-4.5302982870760025e-06 -1.6021392649408247e-18 5.565120559647624e-19 
2.138588785227658e-18 -1.3636168124258367e-18 -4.530298287073433e-06 
-1.3636168124258367e-18 -1.1707840408870379e-18 -1.997634850470776e-18 
-4.530298287073433e-06 -1.997634850470776e-18 -4.53089509851147e-19 
2.663071586167525e-19 4.868885478334972e-19 -4.530298287076209e-06 
4.868885478334972e-19 -1.239917811042546e-18 -1.4483980903780653e-18 
-4.530298287076209e-06 -1.4483980903780653e-18 -9.081371988474337e-19 
1.4528309111305758e-18 3.2472463629799702e-18 -4.530298287074029e-06 
3.2472463629799702e-18 -7.027442352445968e-19 -1.4748732895863502e-18 
-4.530298287074029e-06 -1.4748732895863502e-18 -3.09959459392828e-19 
-5.678508878392826e-19 2.011053784869162e-18 -4.5302982870748895e-06 
2.011053784869162e-18 8.989769295288483e-19 -2.739580837819542e-19 
-4.5302982870748895e-06 -2.739580837819542e-19 -1.746808019189042e-19 
-1.822137276133451e-18 2.2462869662838526e-18 -4.530298287073423e-06 
2.2462869662838526e-18 8.51489872973779e-19 -1.2546302408619477e-18 
-4.530298287073423e-06 -1.2546302408619477e-18 1.2032930626564918e-18 
-6.281596336837887e-19 1.4158846999772226e-18 -4.530298287073109e-06 
1.4158846999772226e-18 -5.575808729139582e-19 -1.1887832736538553e-18 
-4.530298287073109e-06 -1.1887832736538553e-18 1.1245306994933609e-18 
6.098637220230962e-20 2.1728068002368867e-19 -4.530298287072659e-06 
2.1728068002368867e-19 -1.2960885978067736e-19 2.737046259535304e-19 
-4.530298287072659e-06 2.737046259535304e-19 2.4420409439653988e-19 
-1.3193385186432981e-18 7.913001400096359e-19 -4.530298287071278e-06 
7.913001400096359e-19 1.0690427206501051e-18 1.5194182785220238e-20 
-4.530298287071278e-06 1.5194182785220238e-20 -8.213633874209797e-20 
-9.34446747410944e-19 -3.4497208966580916e-18 -4.530298287071086e-06 
-3.4497208966580916e-18 2.2601528943872353e-19 -1.80584724352858e-18 
-4.530298287071086e-06 -1.80584724352858e-18 -6.378779412123634e-19 
1.03609070108146e-18 -1.9871474464552255e-18 -4.530298287074945e-06 
-1.9871474464552255e-18 6.624804369544171e-20 2.49213190827377e-19 
-4.530298287074945e-06 2.49213190827377e-19 -5.605772734897684e-19 
1.738789234123628e-18 -1.5401595150882743e-19 -4.530298287074407e-06 
-1.5401595150882743e-19 -1.0602460520420863e-18 -4.52681281783702e-19 
-4.530298287074407e-06 -4.52681281783702e-19 -6.868577409928552e-19 
6.193504910323443e-19 3.019646515148177e-18 -4.5302982870745794e-06 
3.019646515148177e-18 2.531072593770653e-19 -2.5150462171797762e-18 
-4.5302982870745794e-06 -2.5150462171797762e-18 -1.0083595396066275e-18 
3.2864878353466853e-19 1.511870471401739e-18 -4.530298287075233e-06 
1.511870471401739e-18 -4.882957393550764e-19 -2.8775867309574893e-18 
-4.530298287075233e-06 -2.8775867309574893e-18 5.214651017794166e-19 
-1.07742590890747e-18 -2.9338637077723873e-18 -4.530298287074417e-06 
-2.9338637077723873e-18 -2.1619274643541195e-18 -1.0017845311505627e-18 
-4.530298287074417e-06 -1.0017845311505627e-18 1.599845960963869e-18 
-1.130280764816138e-18 -3.917998176659934e-19 -4.53029828707224e-06 
-3.917998176659934e-19 -1.149414112237429e-20 2.368936022062356e-18 
-4.53029828707224e-06 2.368936022062356e-18 1.4085339339380212e-18 
-2.608861477543245e-19 -9.119491059412529e-19 -4.530298287072276e-06 
-9.119491059412529e-19 5.806169683967538e-20 2.1069050313001035e-18 
-4.530298287072276e-06 2.1069050313001035e-18 6.127811428220254e-19 
1.8838012746935609e-19 -1.1919074071917663e-20 -4.530298287071962e-06 
-1.1919074071917663e-20 -1.0140794064005017e-18 8.902406664654336e-19 
-4.530298287071962e-06 8.902406664654336e-19 3.2593880861258774e-19 
2.4394548880924004e-20 -1.4402751276735016e-18 -4.530298287070266e-06 
-1.4402751276735016e-18 1.3811727216094582e-18 -8.986313287054889e-19 
-4.530298287070266e-06 -8.986313287054889e-19 2.875118714353083e-19 
-6.742382260144235e-19 4.013871602868102e-20 -4.5302982870720595e-06 
4.013871602868102e-20 8.481426024544204e-20 4.1441966902325674e-19 
-4.5302982870720595e-06 4.1441966902325674e-19 -4.9988692447517856e-20 
7.243825764918779e-19 -8.059444478940095e-19 -4.530298287072843e-06 
-8.059444478940095e-19 -3.926136230089615e-19 2.493623111818395e-19 
-4.530298287072843e-06 2.493623111818395e-19 -2.67016481225531e-19 
6.688172151519951e-19 -2.4107616411191985e-18 -4.530298287073558e-06 
-2.4107616411191985e-18 -1.0051315115954874e-18 -5.104426450038729e-20 
-4.530298287073558e-06 -5.104426450038729e-20 -6.4644539170285e-19 
2.778268066994105e-19 -5.438061368292804e-19 -4.5302982870720926e-06 
-5.438061368292804e-19 -1.4194934102329123e-18 -2.921711055149497e-18 
-4.5302982870720926e-06 -2.921711055149497e-18 -6.805844450074113e-19 
3.6727348592946494e-19 -1.5786272841274334e-18 -4.530298287072887e-06 
-1.5786272841274334e-18 -1.1981390826606028e-18 -2.4112053925790093e-18 
-4.530298287072887e-06 -2.4112053925790093e-18 4.2713941416939316e-19 
-1.320693771358905e-18 3.6848048700369806e-18 -4.5302982870718384e-06 
3.6848048700369806e-18 6.146015869674919e-19 7.290192109293335e-19 
-4.5302982870718384e-06 7.290192109293335e-19 1.3556389195756885e-19 
7.602967734554599e-19 4.1983542522695855e-18 -4.5302982870728295e-06 
4.1983542522695855e-18 3.1318900041309885e-19 -4.068620975092922e-19 
-4.5302982870728295e-06 -4.068620975092922e-19 -2.823820108226955e-19 
1.1858461261560205e-19 -7.221448623053841e-19 -4.53029828707215e-06 
-7.221448623053841e-19 -9.51763144556096e-19 9.844405531526137e-19 
-4.53029828707215e-06 9.844405531526137e-19 5.151857038454297e-19 
-1.923781229803967e-18 3.2674217565294293e-18 -4.530298287070296e-06 
3.2674217565294293e-18 3.2279246141786635e-19 1.0415544612897774e-18 
-4.530298287070296e-06 1.0415544612897774e-18 1.5767384724419515e-19 
2.5587171270657906e-18 1.4378731677851231e-18 -4.530298287071253e-06 
1.4378731677851231e-18 -6.417863443383797e-20 -1.6057727427370114e-18 
-4.530298287071253e-06 -1.6057727427370114e-18 -9.715150312953119e-20 
-1.702875037160045e-18 5.345405482329876e-19 -4.530298287074981e-06 
5.345405482329876e-19 7.880299077362298e-19 -3.351026685494333e-20 
-4.530298287074981e-06 -3.351026685494333e-20 1.613973610585965e-19 
-3.5033282698437893e-19 -1.0893654465946803e-18 -4.530298287072125e-06 
-1.0893654465946803e-18 1.6912654467663807e-19 2.0301823677405088e-18 
-4.530298287072125e-06 2.0301823677405088e-18 3.6745516164719594e-19 
-2.7206698265808127e-18 -4.735681104579746e-19 -4.530298287071046e-06 
-4.735681104579746e-19 1.6200552901952814e-18 1.3057181216450954e-19 
-4.530298287071046e-06 1.3057181216450954e-19 3.788194787590594e-20 
1.0184724157785704e-18 5.007193501305548e-20 -4.530298287070925e-06 
5.007193501305548e-20 6.75001154183864e-19 -2.9094963029309687e-18 
-4.530298287070925e-06 -2.9094963029309687e-18 -1.8771398732442348e-19 
1.362028979184915e-18 1.0878805187468048e-18 -4.5302982870705366e-06 
1.0878805187468048e-18 -3.9108499919597566e-19 -1.911551576875615e-18 
-4.5302982870705366e-06 -1.911551576875615e-18 -1.8983740574989592e-19 
1.0232158002831964e-19 2.276581935084662e-18 -4.530298287072348e-06 
2.276581935084662e-18 -1.90616339643439e-19 -2.393877018660632e-19 
-4.530298287072348e-06 -2.393877018660632e-19 -8.648337586917231e-19 
2.0328790734103208e-19 1.2026679883953546e-18 -4.53029828707581e-06 
1.2026679883953546e-18 5.942267621930755e-19 -8.404616073284345e-19 
-4.53029828707581e-06 -8.404616073284345e-19 -1.8716045913776063e-19 
7.182839392716467e-19 -3.0001040815914045e-18 -4.530298287072747e-06 
-3.0001040815914045e-18 1.136214317896056e-18 1.765736622773322e-18 
-4.530298287072747e-06 1.765736622773322e-18 6.599728505450989e-19 
-1.0733601507606496e-18 5.126358440794448e-18 -4.530298287071049e-06 
5.126358440794448e-18 3.4948194325522815e-19 3.1306133744089802e-18 
-4.530298287071049e-06 3.1306133744089802e-18 1.1572863506905736e-19 
1.6215598742236326e-18 -6.809462533802579e-19 -4.530298287072833e-06 
-6.809462533802579e-19 -4.0413744676824257e-19 -2.4072766581899557e-19 
-4.530298287072833e-06 -2.4072766581899557e-19 -3.687018706024502e-20 
CELL_DATA 500 
TENSORS stress float 
LOOKUP_TABLE default 
-3.89135333892337e-08 -2.2196885850293035e-08 7915.096972935208 
-2.2196885850293035e-08 -2.5076478720266422e-08 1.642188903837114e-08 
7915.096972935208 1.642188903837114e-08 -2.4056289255739632e-08 
-5.767713752612537e-09 3.0666742778303038e-09 7915.0969729308945 
3.0666742778303038e-09 2.175558673532734e-08 1.2669374741944616e-08 
7915.0969729308945 1.2669374741944616e-08 9.332036618121011e-09 
1.4145033473416147e-09 1.217216497955365e-09 7915.096972933423 
1.217216497955365e-09 5.920275261058599e-09 1.2674887620459543e-08 
7915.096972933423 1.2674887620459543e-08 -2.573780942447281e-09 
1.4279069385976141e-08 -1.241631408630669e-08 7915.0969729305725 
-1.241631408630669e-08 3.8761820239176854e-10 1.3152931262388768e-09 
7915.0969729305725 1.3152931262388768e-09 -3.197174366685911e-09 
1.9153572088686735e-08 3.8006215514157926e-10 7915.09697292572 
3.8006215514157926e-10 3.41546112437703e-09 -4.800147101431737e-09 
7915.09697292572 -4.800147101431737e-09 1.1122035903672831e-08 
3.852936381273868e-08 1.8557668133673403e-08 7915.096972924987 
1.8557668133673403e-08 4.276722911081943e-08 -7.52487811914313e-09 
7915.096972924987 -7.52487811914313e-09 4.032314801223947e-08 
-2.122402424618642e-09 -8.67488991652766e-09 7915.096972929648 
-8.67488991652766e-09 1.991637918686487e-08 -6.419564386584517e-09 
7915.096972929648 -6.419564386584517e-09 9.786281938109297e-09 
1.31842258376886e-08 -1.4661022646842279e-08 7915.096972941206 
-1.4661022646842279e-08 1.498992464503678e-08 -6.074756296886379e-11 
7915.096972941206 -6.074756296886379e-11 1.4313448977812582e-08 
3.796324249197957e-09 -6.237740961781305e-09 7915.096972939351 
-6.237740961781305e-09 1.2010586289488422e-08 5.623536231683935e-10 
7915.096972939351 5.623536231683935e-10 1.069318124761953e-08 
1.3430048080169009e-08 -3.511613448780146e-09 7915.096972943835 
-3.511613448780146e-09 4.092320246873399e-08 1.8366027713378356e-09 
7915.096972943835 1.8366027713378356e-09 2.311391602418799e-08 
6.171644750899105e-09 -2.3164376881409874e-08 7915.096972959137 
-2.3164376881409874e-08 2.2854833720694802e-08 1.3317551104338282e-08 
7915.096972959137 1.3317551104338282e-08 1.60787660103462e-08 
-5.110608494267266e-10 6.453313423128229e-09 7915.096972953402 
6.453313423128229e-09 8.278402909972462e-09 1.100476180860928e-08 
7915.096972953402 1.100476180860928e-08 -6.118536224868425e-10 
1.7859100193286533e-08 2.9321985354600076e-09 7915.096972941361 
2.9321985354600076e-09 -2.361772469301432e-10 1.7193994751717909e-09 
7915.096972941361 1.7193994751717909e-09 -3.892442216722991e-09 
-2.065108423055596e-08 -2.344114878515194e-08 7915.0969729385615 
-2.344114878515194e-08 -2.6626547199698746e-08 -7.997920485298158e-09 
7915.0969729385615 -7.997920485298158e-09 -2.1894796175773957e-08 
3.757171175577349e-08 -2.5595348201979394e-08 7915.096972940772 
-2.5595348201979394e-08 2.9621957192586018e-08 -3.172136711077137e-09 
7915.096972940772 -3.172136711077137e-09 3.242429134986227e-08 
-1.12676885269214e-08 -1.0028885720060028e-08 7915.096972934102 
-1.0028885720060028e-08 -1.973197779580818e-08 -7.386966348891797e-09 
7915.096972934102 -7.386966348891797e-09 -1.3745836702807556e-08 
-5.950898126132755e-08 -1.800226048841813e-08 7915.096972931686 
-1.800226048841813e-08 -5.786528961450216e-08 -1.1148077356167969e-08 
7915.096972931686 -1.1148077356167969e-08 -5.7203508202598544e-08 
-1.6981625769083697e-08 -1.3495843757303505e-08 7915.096972948593 
-1.3495843757303505e-08 -3.796383407852445e-09 -1.9806514611902613e-09 
7915.096972948593 -1.9806514611902613e-09 -4.2491049184216175e-09 
3.479143449838672e-08 -5.151135509605621e-09 7915.096972944961 
-5.151135509605621e-09 4.154885131351838e-08 6.534270688311754e-09 
7915.096972944961 6.534270688311754e-09 4.303349875346921e-08 
1.8859425974933602e-08 -5.27009238188107e-09 7915.096972934401 
-5.27009238188107e-09 2.7264691454871668e-08 1.0033313426915048e-08 
7915.096972934401 1.0033313426915048e-08 2.31912481468645e-08 
1.0624243817758279e-08 1.199644123385841e-08 7915.096972959826 
1.199644123385841e-08 -9.179572164341606e-09 1.011957944513867e-08 
7915.096972959826 1.011957944513867e-08 4.975677670417119e-09 
-9.374496713197785e-10 1.2544054993853013e-08 7915.0969729534645 
1.2544054993853013e-08 -2.3778561817663373e-08 8.571255715099312e-09 
7915.0969729534645 8.571255715099312e-09 -1.3454101695253307e-08 
-3.5296012752816775e-08 1.0398030742197087e-08 7915.096972945349 
1.0398030742197087e-08 -4.2610434973295756e-08 4.676526694839643e-09 
7915.096972945349 4.676526694839643e-09 -3.594875329656151e-08 
-2.1644063907590564e-08 -1.5725093544562465e-08 7915.096972941556 
-1.5725093544562465e-08 -6.9551284774965e-09 1.181144562138666e-09 
7915.096972941556 1.181144562138666e-09 -1.2866137079091916e-08 
2.0884193403562997e-08 -1.3852083571370027e-09 7915.096972945969 
-1.3852083571370027e-09 1.4851535143110675e-08 3.732608762742233e-09 
7915.096972945969 3.732608762742233e-09 1.4678594276875015e-08 
6.176885881710724e-09 1.1295575698901275e-08 7915.096972935548 
1.1295575698901275e-08 6.441995257954014e-09 -1.4289395388931278e-09 
7915.096972935548 -1.4289395388931278e-09 5.845448729180039e-09 
-2.926579189499378e-08 -6.13235521341008e-09 7915.0969729376375 
-6.13235521341008e-09 -2.1567233868396126e-08 -8.143007215049846e-09 
7915.0969729376375 -8.143007215049846e-09 -3.3213978487671426e-08 
1.2991296135281477e-08 -1.451443832800634e-09 7915.096972948034 
-1.451443832800634e-09 1.8208440242638892e-08 -1.194110135617553e-08 
7915.096972948034 -1.194110135617553e-08 1.0697302732599307e-08 
1.9829738156001e-08 1.2665462681221044e-08 7915.096972945282 
1.2665462681221044e-08 1.2432116779581537e-08 -6.7202498396238e-09 
7915.096972945282 -6.7202498396238e-09 1.5885601406214558e-08 
-3.937378559078437e-08 1.8831965335053e-08 7915.096972927644 
1.8831965335053e-08 -4.272629414739778e-08 4.310331615499708e-09 
7915.096972927644 4.310331615499708e-09 -3.691895710849942e-08 
-8.702207682038768e-10 4.314980227594337e-09 7915.096972956499 
4.314980227594337e-09 -1.197027004683675e-08 4.256727014439328e-09 
7915.096972956499 4.256727014439328e-09 3.143189998953277e-09 
1.4662886656934844e-08 -8.065878902568386e-09 7915.096972950476 
-8.065878902568386e-09 1.6894803929550017e-08 -6.982138475684151e-09 
7915.096972950476 -6.982138475684151e-09 2.6778711448972783e-08 
-1.7591598130729873e-09 4.645278778270239e-10 7915.096972954967 
4.645278778270239e-10 -1.2603786952217032e-09 -9.410745752411936e-09 
7915.096972954967 -9.410745752411936e-09 -2.2165695836171555e-09 
-1.3003341051749316e-08 -6.506076984348875e-09 7915.096972939022 
-6.506076984348875e-09 -1.9760502691235796e-08 -3.83396338833644e-09 
7915.096972939022 -3.83396338833644e-09 -2.524552921006575e-08 
1.7931078323724993e-08 -5.266909999655873e-09 7915.096972942757 
-5.266909999655873e-09 1.8525592309757026e-08 3.936429522872809e-09 
7915.096972942757 3.936429522872809e-09 1.2025377104301192e-08 
-1.0906426003950975e-09 8.91801366918669e-09 7915.096972938429 
8.91801366918669e-09 -1.1208681858131681e-09 1.0605558449255686e-08 
7915.096972938429 1.0605558449255686e-08 1.6167398261766093e-09 
-2.5469723763302394e-08 4.478607986228657e-09 7915.0969729402805 
4.478607986228657e-09 -1.2890567530933086e-08 6.444048950017295e-10 
7915.0969729402805 6.444048950017295e-10 -1.1562156728338584e-08 
2.354950915376028e-08 -3.3832411324008953e-09 7915.096972943765 
-3.3832411324008953e-09 1.575048699215454e-08 -6.6696832054894405e-09 
7915.096972943765 -6.6696832054894405e-09 2.253756831196635e-08 
2.0033479738163077e-08 -5.2944319117523585e-09 7915.096972940362 
-5.2944319117523585e-09 2.106513529684891e-08 -1.7339263649315186e-09 
7915.096972940362 -1.7339263649315186e-09 9.415347758165265e-09 
4.199917885858675e-08 2.595625798652123e-09 7915.096972928481 
2.595625798652123e-09 4.367550225707215e-08 -2.9255751722817107e-09 
7915.096972928481 -2.9255751722817107e-09 2.487424151896195e-08 
1.9142990538678588e-08 1.0291099641180086e-08 7915.096972940637 
1.0291099641180086e-08 3.041609565923516e-08 -3.4884742128093594e-10 
7915.096972940637 -3.4884742128093594e-10 2.9590566221839706e-08 
-1.1259273849916194e-08 6.661320143418241e-09 7915.09697294665 
6.661320143418241e-09 4.379300384092799e-09 6.860629412834499e-09 
7915.09697294665 6.860629412834499e-09 1.7556137300974215e-08 
1.068884664742117e-09 4.308878346115882e-09 7915.09697296302 
4.308878346115882e-09 -1.3032734729553098e-08 1.6954272954107333e-08 
7915.09697296302 1.6954272954107333e-08 -9.573127516448619e-09 
-1.4703808693399298e-08 -1.6111505557224426e-08 7915.096972935628 
-1.6111505557224426e-08 -2.6690560100630094e-08 1.5103393655342465e-08 
7915.096972935628 1.5103393655342465e-08 -2.6358936012946486e-08 
-1.146665805808609e-08 -1.7894043127939776e-08 7915.096972932757 
-1.7894043127939776e-08 -1.0343398295231785e-08 4.834864963573684e-09 
7915.096972932757 4.834864963573684e-09 1.0675136995757131e-09 
-8.464724779912243e-09 -9.961263030897808e-09 7915.096972945782 
-9.961263030897808e-09 -2.455214533208074e-10 -2.673205153018664e-09 
7915.096972945782 -2.673205153018664e-09 -8.330454560688731e-09 
-6.348769624661772e-09 -1.523526038678939e-08 7915.096972941168 
-1.523526038678939e-08 -4.471889977984633e-09 5.358603441728596e-10 
7915.096972941168 5.358603441728596e-10 -1.3988855154785478e-08 
1.7312937033954557e-08 -1.3392282841998584e-08 7915.096972947795 
-1.3392282841998584e-08 1.563664358455912e-08 8.275211368621392e-09 
7915.096972947795 8.275211368621392e-09 1.5757729393083097e-08 
-6.586516191671624e-09 4.54030039649883e-09 7915.096972945367 
4.54030039649883e-09 -1.1941288266981691e-08 1.364538074994638e-09 
7915.096972945367 1.364538074994638e-09 2.1976806979988913e-09 
4.319316673293254e-08 -6.950234680894481e-09 7915.096972945602 
-6.950234680894481e-09 2.1323713567854495e-08 -9.192087071262157e-09 
7915.096972945602 -9.192087071262157e-09 3.254472239993443e-08 
-1.6626487588997227e-08 -3.4223689963715864e-09 7915.096972930116 
-3.4223689963715864e-09 -1.4519276110790091e-08 3.810190089451198e-09 
7915.096972930116 3.810190089451198e-09 -1.9110368412401636e-08 
-3.8071861275369826e-08 -8.283124948216982e-09 7915.096972939446 
-8.283124948216982e-09 -3.619558607836138e-08 -1.9368470321378364e-10 
7915.096972939446 -1.9368470321378364e-10 -3.2667057364088806e-08 
1.121266665605804e-08 8.656781079474253e-09 7915.096972955966 
8.656781079474253e-09 -4.765986500066467e-09 -5.706394753081622e-09 
7915.096972955966 -5.706394753081622e-09 -3.646110146909431e-10 
9.744008559444698e-09 6.747490442616538e-09 7915.096972937745 
6.747490442616538e-09 3.2200105050338267e-09 -7.716495338241241e-09 
7915.096972937745 -7.716495338241241e-09 1.6813876976514798e-09 
1.4778917846448332e-09 1.2315365651996877e-08 7915.09697293066 
1.2315365651996877e-08 1.40983449846266e-08 4.929643124460399e-09 
7915.09697293066 4.929643124460399e-09 1.6014473478097817e-08 
-2.354272825867893e-08 2.0220567152155368e-08 7915.096972941638 
2.0220567152155368e-08 -1.3629111746310411e-08 5.276938587300629e-09 
7915.096972941638 5.276938587300629e-09 -5.3318724398730876e-09 
2.806057174623914e-09 1.290004729143797e-08 7915.096972945699 
1.290004729143797e-08 -1.3474241726722772e-08 2.3363204428353426e-09 
7915.096972945699 2.3363204428353426e-09 -1.4124539187563385e-08 
-1.9635987632511653e-08 4.202533382360085e-09 7915.09697294497 
4.202533382360085e-09 -2.507253388522672e-08 4.4517974739915695e-09 
7915.09697294497 4.4517974739915695e-09 -2.7469885623165978e-08 
2.9682599481125304e-09 4.2153292006347866e-09 7915.096972942404 
4.2153292006347866e-09 7.69956392451935e-09 7.608361996509264e-09 
7915.096972942404 7.608361996509264e-09 1.450914959813048e-08 
2.8834723565381917e-08 1.3558433280875924e-08 7915.096972951781 
1.3558433280875924e-08 2.385598242697941e-08 3.1837011890112344e-09 
7915.096972951781 3.1837011890112344e-09 2.7776106043056535e-08 
-2.959674813869593e-08 8.267351961056557e-09 7915.09697294746 
8.267351961056557e-09 -3.054911690719688e-08 1.4662661249366837e-10 
7915.09697294746 1.4662661249366837e-10 -3.6240847014979726e-08 
-2.6557709880687888e-08 2.342363582305396e-10 7915.096972939533 
2.342363582305396e-10 -2.0616515723160982e-08 -2.048262837655261e-08 
7915.096972939533 -2.048262837655261e-08 -2.666419421285536e-08 
1.7527088851571803e-08 -7.575205117856695e-09 7915.096972953062 
-7.575205117856695e-09 -2.627702029613982e-09 -1.4287077649310801e-08 
7915.096972953062 -1.4287077649310801e-08 9.462558255617697e-09 
-1.3670165492766002e-09 -1.1793328456511891e-08 7915.096972936795 
-1.1793328456511891e-08 -3.113220235661867e-08 -4.592290143041708e-09 
7915.096972936795 -4.592290143041708e-09 -1.3651196274288175e-08 
1.2713307959987439e-08 -2.0277178261943754e-09 7915.0969729232065 
-2.0277178261943754e-09 1.073843261359375e-08 -1.2708597439274531e-08 
7915.0969729232065 -1.2708597439274531e-08 7.91919219345598e-09 
-8.654993691990318e-10 1.796459731552966e-09 7915.096972925681 
1.796459731552966e-09 1.2079798264392608e-08 -4.31638760372526e-11 
7915.096972925681 -4.31638760372526e-11 2.9784637504267624e-09 
1.5183702906863703e-09 1.2586685720819145e-09 7915.096972940041 
1.2586685720819145e-09 5.348587103333001e-09 2.351897217225133e-08 
7915.096972940041 2.351897217225133e-08 2.975917185873899e-09 
-1.1712425095871814e-08 -6.274572958157416e-09 7915.096972947259 
-6.274572958157416e-09 1.1456086305557383e-08 1.3930728206442703e-08 
7915.096972947259 1.3930728206442703e-08 2.2579501575960154e-09 
2.87038382999264e-08 -2.3632474377901968e-09 7915.096972939571 
-2.3632474377901968e-09 3.462472687489736e-08 -8.529881342251666e-09 
7915.096972939571 -8.529881342251666e-09 2.7075023507531097e-08 
3.371773292177251e-08 1.0332319230832565e-08 7915.09697295241 
1.0332319230832565e-08 4.1011869217198026e-08 -9.93268278645339e-09 
7915.09697295241 -9.93268278645339e-09 2.911431256055961e-08 
-3.205733556944267e-08 1.2777694204432463e-10 7915.096972942862 
1.2777694204432463e-10 -2.6195246463998563e-08 2.457771004827781e-10 
7915.096972942862 2.457771004827781e-10 -2.2612467773813806e-08 
1.1284026925244358e-08 -5.201712959124387e-10 7915.096972942426 
-5.201712959124387e-10 9.852279688393735e-10 2.4337582479484183e-09 
7915.096972942426 2.4337582479484183e-09 9.508731012582052e-09 
9.201111841625861e-09 5.142238674456406e-09 7915.096972943885 
5.142238674456406e-09 3.7684474330001105e-09 -2.105789748237978e-09 
7915.096972943885 -2.105789748237978e-09 3.1993797583077116e-09 
1.6898961498377727e-08 9.533499748155281e-09 7915.096972944876 
9.533499748155281e-09 1.2071616032493055e-08 3.4126602667685083e-09 
7915.096972944876 3.4126602667685083e-09 9.696777869907807e-09 
1.556052930449116e-08 1.1724394143186476e-08 7915.0969729249855 
1.1724394143186476e-08 1.108162379710538e-09 9.15578939104686e-09 
7915.0969729249855 9.15578939104686e-09 1.2612364367054532e-08 
-5.727453079276771e-08 -1.0558691328919544e-08 7915.0969729322305 
-1.0558691328919544e-08 -4.3902518210989e-08 1.807719658523519e-09 
7915.0969729322305 1.807719658523519e-09 -4.9812399285181575e-08 
3.94946231905458e-09 -1.114384356256106e-08 7915.096972945627 
-1.114384356256106e-08 1.122917935298498e-08 -2.6792274136550836e-09 
7915.096972945627 -2.6792274136550836e-09 -1.6000904205576618e-09 
-1.5214214263214312e-08 -1.6738186122887123e-09 7915.096972959427 
-1.6738186122887123e-09 -5.624223888851757e-09 -2.5902736454649144e-09 
7915.096972959427 -2.5902736454649144e-09 -5.581297677941089e-09 
1.6152386493933302e-08 -5.799366970340165e-09 7915.0969729460785 
-5.799366970340165e-09 -1.1153500268820922e-09 4.862745985191923e-09 
7915.0969729460785 4.862745985191923e-09 3.882219535218252e-09 
-1.5844374431120625e-08 2.4874173660052857e-08 7915.096972952065 
2.4874173660052857e-08 -1.1456735270247655e-08 3.1525975509501734e-09 
7915.096972952065 3.1525975509501734e-09 -1.2723927773256588e-08 
-1.0256992605683675e-08 -9.550845691893553e-09 7915.0969729401595 
-9.550845691893553e-09 -6.386868785298087e-09 -2.902544425656846e-09 
7915.0969729401595 -2.902544425656846e-09 -7.101055666600923e-09 
-4.983687174313064e-09 -7.329777672386406e-09 7915.096972941123 
-7.329777672386406e-09 -2.6400473372719987e-08 7.993784945738189e-09 
7915.096972941123 7.993784945738189e-09 -1.2709553557994524e-08 
7.242832309481394e-09 -1.3714548458931575e-08 7915.096972930649 
-1.3714548458931575e-08 -2.9755988020879827e-08 -7.372940539004413e-09 
7915.096972930649 -7.372940539004413e-09 -1.1545217926396085e-08 
-3.358047425196518e-08 1.3279585880699022e-09 7915.096972950693 
1.3279585880699022e-09 -3.865748223837688e-08 -1.8968884225884217e-08 
7915.096972950693 -1.8968884225884217e-08 -3.296678640998893e-08 
2.1919985921899303e-08 -2.5184853904462664e-09 7915.09697293575 
-2.5184853904462664e-09 2.5847529745271818e-08 -9.974284741123048e-09 
7915.09697293575 -9.974284741123048e-09 2.679648728801205e-08 
-2.903943750499553e-08 1.034828554450672e-08 7915.096972953546 
1.034828554450672e-08 -1.2415386156468698e-08 3.4168051511063425e-09 
7915.096972953546 3.4168051511063425e-09 -1.5453692707536608e-08 
2.4253930706340713e-08 5.01912864756543e-09 7915.096972961256 
5.01912864756543e-09 2.0743066228111423e-08 -3.883081748794362e-09 
7915.096972961256 -3.883081748794362e-09 8.993073173845373e-09 
-1.32431981715554e-08 2.0953166100167146e-09 7915.096972948887 
2.0953166100167146e-09 -1.8847652511838742e-08 -1.0528929749338971e-08 
7915.096972948887 -1.0528929749338971e-08 -7.578932858923297e-09 
-2.3008180673802098e-08 -9.065847974187898e-09 7915.096972948312 
-9.065847974187898e-09 -2.187252874572635e-08 -6.753744768636985e-09 
7915.096972948312 -6.753744768636985e-09 -7.699708480652066e-09 
-6.0557785766175714e-09 1.7589615287037668e-08 7915.0969729537 
1.7589615287037668e-08 -5.2391287979038585e-09 -4.558296020073698e-09 
7915.0969729537 -4.558296020073698e-09 -1.6622475587764398e-09 
-2.7780991150561367e-09 7.008551356131111e-10 7915.096972945506 
7.008551356131111e-10 1.618020587372951e-08 -5.853545043584821e-09 
7915.096972945506 -5.853545043584821e-09 1.7979178320839645e-09 
3.058190932410679e-08 -1.0603843823681516e-08 7915.0969729379785 
-1.0603843823681516e-08 2.7578178158935582e-08 -5.026365980155609e-09 
7915.0969729379785 -5.026365980155609e-09 2.3530560561055374e-08 
1.1721974145372121e-08 -3.1529726426255613e-09 7915.096972938601 
-3.1529726426255613e-09 5.449116443148239e-09 -2.9863110147786707e-09 
7915.096972938601 -2.9863110147786707e-09 1.0304970273244242e-08 
2.0202080824908857e-08 5.051413427212799e-09 7915.096972947227 
5.051413427212799e-09 2.9535295914318827e-08 -7.840716452707412e-09 
7915.096972947227 -7.840716452707412e-09 1.62173416162669e-08 
2.2748073411818852e-08 -4.684179241317983e-09 7915.096972938851 
-4.684179241317983e-09 1.7292873098536015e-08 -1.551678329219394e-09 
7915.096972938851 -1.551678329219394e-09 1.6121086092620065e-08 
4.238976843949279e-09 6.7013871447713765e-09 7915.096972945228 
6.7013871447713765e-09 -2.5055418440439407e-08 2.6809692362779466e-09 
7915.096972945228 2.6809692362779466e-09 -7.478017775269267e-09 
-1.7805179063097003e-08 1.1360902850395097e-08 7915.096972933081 
1.1360902850395097e-08 -2.09991914950068e-08 -1.1584118035286588e-08 
7915.096972933081 -1.1584118035286588e-08 -2.1113368297462182e-08 
1.892633354686023e-08 -1.425961951449316e-08 7915.096972914976 
-1.425961951449316e-08 3.47546406896392e-08 -1.870558872555073e-09 
7915.096972914976 -1.870558872555073e-09 2.8628201643391646e-08 
-7.635222589762913e-08 -3.7190339682406007e-09 7915.096972933175 
-3.7190339682406007e-09 -3.0467844881806914e-08 1.3969826186285997e-08 
7915.096972933175 1.3969826186285997e-08 -2.7410036032549663e-08 
-1.750082126175442e-09 4.189085259718171e-09 7915.096972946539 
4.189085259718171e-09 -1.3889242531593112e-09 3.868786136859935e-09 
7915.096972946539 3.868786136859935e-09 4.868338474156283e-09 
-2.6279933518449845e-08 -2.407315445711252e-08 4076.135815641982 
-2.407315445711252e-08 -2.349331377000814e-08 -1.4859766401369876e-08 
4076.135815641982 -1.4859766401369876e-08 -2.1333070432714165e-08 
5.258397052313814e-09 1.1698603626392801e-08 4076.1358156523015 
1.1698603626392801e-08 1.2066773153268698e-08 1.5496832591301774e-09 
4076.1358156523015 1.5496832591301774e-09 -6.85455569233499e-10 
2.411865207361993e-09 -7.285087454276118e-09 4076.1358156568026 
-7.285087454276118e-09 -1.334452916797999e-09 -4.093943453720297e-09 
4076.1358156568026 -4.093943453720297e-09 -1.8434169005379934e-09 
-1.0758773092126901e-08 -7.374957190579809e-09 4076.135815650086 
-7.374957190579809e-09 -1.5067606018589418e-08 -3.216398839706436e-09 
4076.135815650086 -3.216398839706436e-09 -8.40151099660274e-09 
7.08438076784231e-10 -6.2718241600594965e-09 4076.1358156530023 
-6.2718241600594965e-09 -1.0098520594228605e-08 2.9434444632215045e-09 
4076.1358156530023 2.9434444632215045e-09 -9.940766515416575e-09 
2.472823807367785e-08 9.323890704106251e-09 4076.135815654249 
9.323890704106251e-09 3.166681366771079e-08 5.430348022327278e-09 
4076.135815654249 5.430348022327278e-09 2.043804578302506e-08 
3.132205089324988e-08 -4.307082172154391e-10 4076.135815646009 
-4.307082172154391e-10 4.213735916429374e-08 7.219939853466121e-09 
4076.135815646009 7.219939853466121e-09 3.6303413150006855e-08 
1.4807785779627578e-08 -1.834777783855632e-08 4076.135815647425 
-1.834777783855632e-08 1.4630891749425263e-08 3.766535043917263e-09 
4076.135815647425 3.766535043917263e-09 1.6609375823663014e-08 
-1.1000374607223798e-08 -1.0832409326954715e-08 4076.13581564412 
-1.0832409326954715e-08 3.2591164448768713e-09 -3.3310134169837545e-09 
4076.13581564412 -3.3310134169837545e-09 -5.930681460287371e-09 
-1.0938904717515335e-09 7.620889468232658e-09 4076.1358156417045 
7.620889468232658e-09 2.9184448543646338e-08 -1.8521937607428336e-09 
4076.1358156417045 -1.8521937607428336e-09 8.877031109123924e-09 
8.542624081109531e-09 4.415754073615215e-09 4076.1358156435285 
4.415754073615215e-09 8.966028360671853e-09 -2.1016589957964743e-08 
4076.1358156435285 -2.1016589957964743e-08 7.417880670325523e-09 
-8.714265533040647e-09 1.8320057991194788e-08 4076.135815642667 
1.8320057991194788e-08 9.35050877952061e-10 -7.486017269770485e-09 
4076.135815642667 -7.486017269770485e-09 -3.588700094457399e-09 
3.9724561032125864e-08 -4.29624344818182e-09 4076.135815647048 
-4.29624344818182e-09 2.2840370032044775e-08 -2.4823744682025066e-09 
4076.135815647048 -2.4823744682025066e-09 2.690339980190777e-08 
-1.8439931793231985e-08 -1.1499535794255586e-08 4076.1358156393476 
-1.1499535794255586e-08 -2.2233130945341775e-08 -1.011452358031472e-09 
4076.1358156393476 -1.011452358031472e-09 -1.839552466615004e-08 
-1.540417351832624e-08 -8.991806379353555e-09 4076.1358156467863 
-8.991806379353555e-09 -8.207846109527357e-09 1.4006527333881575e-09 
4076.1358156467863 1.4006527333881575e-09 -1.676196786578497e-08 
1.3235156424325151e-08 -4.507289916711611e-09 4076.135815644241 
-4.507289916711611e-09 5.894279632642978e-09 -1.6286653968773358e-09 
4076.135815644241 -1.6286653968773358e-09 1.1563512881073425e-08 
-2.1364610731775203e-08 -9.298460258499081e-09 4076.1358156434476 
-9.298460258499081e-09 -2.7979579983515483e-08 -2.852886533136186e-09 
4076.1358156434476 -2.852886533136186e-09 -7.17241573835908e-09 
-1.6086365839871078e-08 -1.0326547355307274e-08 4076.135815652982 
-1.0326547355307274e-08 -1.568003556171541e-08 2.7179892607805496e-09 
4076.135815652982 2.7179892607805496e-09 -9.217017417381971e-09 
1.8270814368230665e-10 -5.510643603106093e-10 4076.135815650498 
-5.510643603106093e-10 9.343687334485642e-09 8.8440174557014e-09 
4076.135815650498 8.8440174557014e-09 -1.9879876728516465e-09 
2.064165112775596e-08 -2.0819299218698325e-10 4076.1358156523333 
-2.0819299218698325e-10 3.53611816633957e-08 6.275477976799037e-09 
4076.1358156523333 6.275477976799037e-09 1.9241090016015953e-08 
-8.866162475593343e-09 -7.966526634235987e-09 4076.135815648768 
-7.966526634235987e-09 -1.1918933709712337e-08 -1.710576508541145e-08 
4076.135815648768 -1.710576508541145e-08 -1.2376033957883783e-08 
-1.5521323341773702e-08 5.3382355563122874e-09 4076.135815640431 
5.3382355563122874e-09 -3.345559625036872e-08 -3.7222808986029523e-09 
4076.135815640431 -3.7222808986029523e-09 -2.3727405679969934e-08 
-7.091321621517115e-10 -4.973518907416366e-10 4076.135815641838 
-4.973518907416366e-10 -2.3230343094460033e-08 2.665363614834017e-09 
4076.135815641838 2.665363614834017e-09 -1.0682447078254945e-08 
-1.6677402344959786e-08 -9.103493199856385e-09 4076.1358156382066 
-9.103493199856385e-09 -1.4571405308021138e-08 2.3018715668302813e-09 
4076.1358156382066 2.3018715668302813e-09 -1.3465013621814668e-08 
-5.860388685698015e-10 6.0333151377787734e-09 4076.1358156548654 
6.0333151377787734e-09 -2.816874656309409e-09 4.633518980700289e-09 
4076.1358156548654 4.633518980700289e-09 -2.8980231691168794e-09 
8.96974927046194e-09 1.0735365913780651e-08 4076.1358156484725 
1.0735365913780651e-08 1.591824530065017e-08 4.581375368275198e-09 
4076.1358156484725 4.581375368275198e-09 1.7374142280466472e-08 
-3.2468624228706407e-09 -7.657307325310666e-10 4076.1358156460947 
-7.657307325310666e-10 1.1222391857056739e-08 4.2558375650494665e-09 
4076.1358156460947 4.2558375650494665e-09 1.4576167948303033e-08 
8.821814145937e-09 -5.32552718719106e-09 4076.1358156528077 
-5.32552718719106e-09 1.299138889209586e-08 -3.1064874180749224e-10 
4076.1358156528077 -3.1064874180749224e-10 7.085013633473054e-09 
-2.1977917539511462e-08 3.862071171233891e-09 4076.1358156512174 
3.862071171233891e-09 -6.959834928097369e-09 -5.3949521909210874e-09 
4076.1358156512174 -5.3949521909210874e-09 -1.2738015019088903e-08 
-2.171031172855263e-08 -2.214268547568221e-09 4076.1358156430715 
-2.214268547568221e-09 -3.016747360866388e-08 -3.6379427167217414e-09 
4076.1358156430715 -3.6379427167217414e-09 -1.79878097582103e-08 
-2.932068725139424e-08 1.671578507267429e-08 4076.1358156429906 
1.671578507267429e-08 -2.984008505463975e-08 -7.673608078274275e-09 
4076.1358156429906 -7.673608078274275e-09 -3.3907147325978404e-08 
-2.043801510360089e-08 4.3555102775938434e-10 4076.1358156348347 
4.3555102775938434e-10 -2.0612057661298065e-08 -6.240989779659449e-09 
4076.1358156348347 -6.240989779659449e-09 -2.630624296231256e-08 
1.3410726412157463e-08 -7.325953317994975e-09 4076.1358156343163 
-7.325953317994975e-09 4.507442116921985e-09 -1.3521839927365013e-08 
4076.1358156343163 -1.3521839927365013e-08 8.652836620197271e-09 
-2.432271611409943e-09 -1.5835645345084713e-08 4076.135815633287 
-1.5835645345084713e-08 7.894124127245016e-11 -9.394116184261867e-09 
4076.135815633287 -9.394116184261867e-09 -4.073093131897412e-09 
2.5485186480800262e-08 -1.1302082576063933e-08 4076.1358156442043 
-1.1302082576063933e-08 1.3443313337958081e-08 2.2662735090347702e-10 
4076.1358156442043 2.2662735090347702e-10 5.812590571852022e-09 
-4.426300569962995e-09 1.1639671247765185e-09 4076.1358156440615 
1.1639671247765185e-09 -6.126258799813088e-09 -2.998564466969045e-10 
4076.1358156440615 -2.998564466969045e-10 -2.3498345463037473e-09 
-2.330474129533917e-08 2.7371121861557607e-09 4076.1358156391307 
2.7371121861557607e-09 -4.6000784924153775e-09 4.554668533956038e-09 
4076.1358156391307 4.554668533956038e-09 -6.809370426581481e-09 
8.713615545422244e-10 1.1934572298694829e-09 4076.135815644659 
1.1934572298694829e-09 1.2618835807965919e-08 6.487091031999785e-09 
4076.135815644659 6.487091031999785e-09 4.241389401458286e-09 
-1.747828510413373e-08 4.1876211336921615e-09 4076.1358156519627 
4.1876211336921615e-09 -4.658372500870397e-09 1.96748173185359e-09 
4076.1358156519627 1.96748173185359e-09 -4.4589345095795814e-10 
3.985988336671735e-08 3.5155918866818094e-09 4076.1358156460215 
3.5155918866818094e-09 3.0600768660956805e-08 1.1085765078967166e-09 
4076.1358156460215 1.1085765078967166e-09 3.512312960895637e-08 
-9.53864821835849e-09 -6.170851815049966e-09 4076.135815649192 
-6.170851815049966e-09 7.244418615250497e-09 8.262178008837502e-10 
4076.135815649192 8.262178008837502e-10 -5.218145536934576e-09 
-9.413278026191007e-09 -7.550010134775875e-09 4076.135815641788 
-7.550010134775875e-09 -7.749858403503571e-09 -4.784810662877232e-09 
4076.135815641788 -4.784810662877232e-09 -1.4834812297701798e-08 
1.8608850732725113e-11 1.0537735404416001e-08 4076.1358156415017 
1.0537735404416001e-08 -1.1666949385754279e-08 -5.092120859504157e-09 
4076.1358156415017 -5.092120859504157e-09 -7.63690372757508e-09 
-1.713695314933909e-08 3.181544842025778e-09 4076.135815641219 
3.181544842025778e-09 -1.91184532185331e-08 6.642732721483222e-09 
4076.135815641219 6.642732721483222e-09 -2.47706535268811e-08 
-9.827216110072645e-09 -7.629591784188176e-09 4076.1358156403794 
-7.629591784188176e-09 -1.2771769845160845e-08 4.187066423496286e-09 
4076.1358156403794 4.187066423496286e-09 -2.0841378299323893e-08 
1.4376236650759399e-09 -1.3384991207453725e-09 4076.13581563642 
-1.3384991207453725e-09 1.7985878485822797e-09 -4.858139069661001e-09 
4076.13581563642 -4.858139069661001e-09 5.7634129389147005e-09 
-4.314016111054999e-09 -1.3151685383648206e-08 4076.1358156373694 
-1.3151685383648206e-08 3.1261557431264238e-09 -2.8072178582661915e-09 
4076.1358156373694 -2.8072178582661915e-09 9.812797017017783e-09 
1.5995154399001515e-08 -1.055975376139712e-08 4076.1358156457654 
-1.055975376139712e-08 9.1882019275483e-09 4.472731139328009e-09 
4076.1358156457654 4.472731139328009e-09 1.4861228896329422e-08 
-2.5389008705361147e-08 4.515766912356372e-09 4076.1358156515143 
4.515766912356372e-09 -3.019001945299828e-08 4.020056069883934e-09 
4076.1358156515143 4.020056069883934e-09 -1.8154271378415363e-08 
2.872652974506453e-08 3.3040121304867026e-09 4076.135815658313 
3.3040121304867026e-09 9.929430874597465e-09 8.726589959319979e-10 
4076.135815658313 8.726589959319979e-10 2.0238453368708195e-08 
2.823139821878903e-09 2.6056840046041395e-09 4076.1358156531296 
2.6056840046041395e-09 8.185066409282354e-09 6.563786032415728e-09 
4076.1358156531296 6.563786032415728e-09 1.851743830285797e-09 
1.5761312103824367e-08 -7.200943310072327e-09 4076.1358156497945 
-7.200943310072327e-09 3.244730454930844e-09 5.366236458481259e-09 
4076.1358156497945 5.366236458481259e-09 -7.469259145266897e-09 
3.4196753370092423e-09 -1.6900242127747785e-09 4076.1358156424926 
-1.6900242127747785e-09 -4.884759677135115e-10 -1.0052967056104533e-08 
4076.1358156424926 -1.0052967056104533e-08 -1.22894484252916e-08 
-9.179583224772735e-09 -3.2435734218874555e-09 4076.135815641449 
-3.2435734218874555e-09 -1.6802205473149897e-08 -1.0916750856417626e-08 
4076.135815641449 -1.0916750856417626e-08 -2.2451043178410742e-08 
-1.2857897358046655e-08 -7.044123992582877e-10 4076.13581564367 
-7.044123992582877e-10 -9.06060176374895e-09 1.3731326065981238e-09 
4076.13581564367 1.3731326065981238e-09 -1.7085727195963905e-08 
-8.223943077169535e-09 1.340007141997814e-08 4076.135815625902 
1.340007141997814e-08 3.7433186746367795e-09 5.296144360374054e-09 
4076.135815625902 5.296144360374054e-09 4.3164764485436915e-09 
5.175721841533316e-09 1.0613296384063226e-08 4076.135815633128 
1.0613296384063226e-08 2.7266117486177776e-09 -2.047504075217478e-09 
4076.135815633128 -2.047504075217478e-09 1.8930371547781932e-08 
-9.861108609831938e-09 -4.7595093148290124e-09 4076.1358156525166 
-4.7595093148290124e-09 -2.0908087281458886e-08 -1.977335342313805e-09 
4076.1358156525166 -1.977335342313805e-09 -2.6940917850256556e-09 
-7.237299894152891e-09 -5.7264954282222744e-09 4076.1358156459946 
-5.7264954282222744e-09 -1.4421775155960821e-08 4.011137580472295e-09 
4076.1358156459946 4.011137580472295e-09 -4.831571511561216e-09 
2.2515025937105397e-08 -5.5582297744868875e-09 4076.1358156498154 
-5.5582297744868875e-09 1.1023749659675759e-08 -1.1442644805421828e-09 
4076.1358156498154 -1.1442644805421828e-09 2.0155041868899984e-08 
1.158864951254216e-08 4.325324899204759e-09 4076.1358156430138 
4.325324899204759e-09 1.2115426714810287e-09 2.4716089814228064e-09 
4076.1358156430138 2.4716089814228064e-09 -4.25794801012761e-13 
1.2275690784970854e-08 2.8192676194673197e-09 4076.1358156494225 
2.8192676194673197e-09 1.7903398223737762e-09 5.411636923560119e-09 
4076.1358156494225 5.411636923560119e-09 -2.0623498780057473e-09 
-6.903346098886407e-09 8.241185681935747e-09 4076.1358156461397 
8.241185681935747e-09 -1.9380958496463593e-08 -3.7077442807467885e-10 
4076.1358156461397 -3.7077442807467885e-10 -1.2925073800781727e-08 
-3.663564051335173e-08 -1.4260597072768994e-09 4076.1358156478127 
-1.4260597072768994e-09 -4.8647555467623796e-08 -2.973545689969055e-09 
4076.1358156478127 -2.973545689969055e-09 -4.181463997375586e-08 
1.0808117865575194e-08 2.7207357570359443e-09 4076.1358156501215 
2.7207357570359443e-09 3.957416679255614e-09 -3.183744243672036e-09 
4076.1358156501215 -3.183744243672036e-09 -1.3262332782473945e-09 
5.0372938047225206e-09 1.9837684442445427e-10 4076.135815638391 
1.9837684442445427e-10 1.3666124350052708e-08 -2.6925807077059877e-09 
4076.135815638391 -2.6925807077059877e-09 1.1599820536901333e-08 
4.031223939638165e-09 -1.7535638055185818e-09 4076.13581564111 
-1.7535638055185818e-09 5.56153029841151e-09 2.8610539311232076e-09 
4076.13581564111 2.8610539311232076e-09 1.3001180128040201e-08 
-1.6100102597920734e-08 -3.239308615950438e-09 4076.1358156444458 
-3.239308615950438e-09 3.246852542518695e-09 6.430446414483399e-09 
4076.1358156444458 6.430446414483399e-09 -2.6546400519633743e-09 
1.0162352752675927e-08 7.429885972832832e-09 4076.135815634087 
7.429885972832832e-09 1.8254594188099005e-08 -2.0454070916533805e-09 
4076.135815634087 -2.0454070916533805e-09 1.3845594643000007e-08 
1.5693140547073704e-08 1.7095550066115429e-09 4076.135815640697 
1.7095550066115429e-09 2.7859941818496116e-08 -1.2069011506763711e-08 
4076.135815640697 -1.2069011506763711e-08 2.2793859603146102e-08 
-2.214317554429553e-08 2.0049298710869464e-09 4076.1358156400584 
2.0049298710869464e-09 -3.5103598405735954e-08 1.910636147884673e-09 
4076.1358156400584 1.910636147884673e-09 -2.6477741455390056e-08 
2.162070954074455e-08 -1.3230106275984701e-08 4076.1358156491665 
-1.3230106275984701e-08 2.320710076393086e-09 4.032687537129675e-09 
4076.1358156491665 4.032687537129675e-09 3.0317288723682797e-09 
-7.65463142913691e-09 -8.265822091639312e-09 4076.1358156524534 
-8.265822091639312e-09 -1.529338973903985e-08 1.0118224312806818e-08 
4076.1358156524534 1.0118224312806818e-08 -9.574125221922318e-09 
-3.3556045876311725e-09 -5.139239481185898e-10 4076.135815655163 
-5.139239481185898e-10 -4.107267779105333e-09 1.3849080732960158e-08 
4076.135815655163 1.3849080732960158e-08 -8.924201761075938e-09 
2.2383869727312012e-08 1.4392291546164162e-08 4076.1358156407136 
1.4392291546164162e-08 1.0614021814010733e-08 1.2936940449031863e-08 
4076.1358156407136 1.2936940449031863e-08 2.6984731280450068e-09 
-3.264468599936307e-08 6.720297088531855e-10 4076.1358156468987 
6.720297088531855e-10 -2.2276683124538652e-08 -1.3005565838356321e-11 
4076.1358156468987 -1.3005565838356321e-11 -2.042592065956385e-08 
-7.634436871195418e-09 -3.446655226714169e-09 4076.135815656913 
-3.446655226714169e-09 -7.590776266151448e-09 -9.742629447688217e-09 
4076.135815656913 -9.742629447688217e-09 -5.2258044382266495e-09 
-2.1655322794599227e-08 4.429326825938433e-09 4076.1358156418323 
4.429326825938433e-09 -1.7188660984308437e-08 1.696458516973716e-09 
4076.1358156418323 1.696458516973716e-09 -2.288933722710388e-08 
6.040791259347026e-09 -3.1443518759401912e-09 4076.135815628866 
-3.1443518759401912e-09 1.049219010138387e-08 1.9711474109977824e-08 
4076.135815628866 1.9711474109977824e-08 7.671905137008256e-09 
-1.8519282544626468e-08 2.0713109291109263e-08 4076.1358156389224 
2.0713109291109263e-08 4.230252960523156e-09 7.398585153003195e-09 
4076.1358156389224 7.398585153003195e-09 -1.9179774204301903e-10 
-1.754046780873484e-08 -1.8607008891099583e-10 4076.1358156471706 
-1.8607008891099583e-10 -1.6995412808543264e-08 8.283149239642446e-09 
4076.1358156471706 8.283149239642446e-09 -1.4368450983978387e-08 
5.287752366459836e-09 -1.324291551402694e-08 4076.135815648798 
-1.324291551402694e-08 -1.7753028309096136e-08 3.3274055796751595e-09 
4076.135815648798 3.3274055796751595e-09 -1.605137910289846e-08 
1.959169262647631e-08 2.343973872653093e-10 4076.1358156460838 
2.343973872653093e-10 -1.6841218402689093e-08 2.8902791710697003e-09 
4076.1358156460838 2.8902791710697003e-09 -7.364548641875534e-09 
-2.4105226969173903e-08 1.6003747807981543e-08 4076.1358156524916 
1.6003747807981543e-08 -3.008058581292344e-08 1.4520452771206881e-09 
4076.1358156524916 1.4520452771206881e-09 -2.8288216265291908e-08 
1.836536773983808e-08 -1.136683831175605e-09 4076.1358156373108 
-1.136683831175605e-09 1.7140200882011885e-08 -7.4003411011279175e-09 
4076.1358156373108 -7.4003411011279175e-09 8.181937223982446e-09 
-2.305466208141647e-08 -1.8166449145026483e-09 4076.1358156334245 
-1.8166449145026483e-09 -3.212412911555227e-09 -7.922408603483635e-10 
4076.1358156334245 -7.922408603483635e-10 -6.9371621998008264e-09 
4.585926075337e-09 -1.3600309720056889e-08 4076.1358156413203 
-1.3600309720056889e-08 1.3098622143016804e-08 1.4072988481882079e-08 
4076.1358156413203 1.4072988481882079e-08 5.283776948114401e-09 
-2.5570760418908562e-08 -2.7664623682236648e-09 4076.1358156383426 
-2.7664623682236648e-09 -3.18937753777959e-08 7.421845787646601e-09 
4076.1358156383426 7.421845787646601e-09 -2.7418980817019145e-08 
-5.891210302133072e-09 -6.266186410092214e-09 4076.1358156359743 
-6.266186410092214e-09 -6.753765322035883e-09 -4.272876029375537e-10 
4076.1358156359743 -4.272876029375537e-10 -9.95460477440875e-10 
1.8289307249733736e-08 1.5558170946400914e-08 4076.135815640919 
1.5558170946400914e-08 1.918228690002594e-08 -3.0436338155633136e-09 
4076.135815640919 -3.0436338155633136e-09 2.0185271425662414e-08 
-4.89156722492038e-09 1.3907744396015253e-08 4076.13581564753 
1.3907744396015253e-08 2.2537513905344767e-08 -3.2133532289499562e-09 
4076.13581564753 -3.2133532289499562e-09 7.672467344118504e-09 
4.143249590586119e-08 -7.389009820029568e-09 4076.135815651788 
-7.389009820029568e-09 2.2319041022934753e-08 -1.0364163109688803e-08 
4076.135815651788 -1.0364163109688803e-08 1.9505007187959282e-08 
2.342899045285482e-08 -1.6839395538053089e-09 4076.135815649735 
-1.6839395538053089e-09 1.1935152871373102e-08 -5.67657381961775e-09 
4076.135815649735 -5.67657381961775e-09 8.137545524914413e-09 
1.0895840251715238e-08 2.5248337449228815e-10 4076.135815653409 
2.5248337449228815e-10 1.695538583608028e-08 6.8755165204413555e-09 
4076.135815653409 6.8755165204413555e-09 1.165278441876276e-08 
4.775519987772414e-09 6.009931342709749e-10 4076.1358156503384 
6.009931342709749e-10 5.1292038669193e-09 8.954007723786923e-09 
4076.1358156503384 8.954007723786923e-09 7.182764467348552e-09 
-1.4401719649855564e-08 1.7031881417134872e-10 4076.135815641709 
1.7031881417134872e-10 -1.3715639155423671e-08 1.1436516125642213e-08 
4076.135815641709 1.1436516125642213e-08 -7.967577230724464e-09 
-3.528126624057553e-08 -7.965381501799453e-09 4076.135815642656 
-7.965381501799453e-09 -2.0489102962854537e-08 2.2919271242249594e-09 
4076.135815642656 2.2919271242249594e-09 -2.1072419423986897e-08 
3.293608464938469e-08 -1.0777671171679164e-08 4076.1358156447454 
-1.0777671171679164e-08 3.915192522380345e-08 -8.348371385027992e-09 
4076.1358156447454 -8.348371385027992e-09 3.016914920492903e-08 
-4.551668621137825e-08 -6.985556186946016e-09 4076.1358156477354 
-6.985556186946016e-09 -3.185181757747334e-08 -4.337592635685984e-09 
4076.1358156477354 -4.337592635685984e-09 -3.191546396213526e-08 
3.463368261562567e-10 -7.314296254464585e-09 4076.1358156551555 
-7.314296254464585e-09 -9.105249061643014e-09 -7.861266015382233e-10 
4076.1358156551555 -7.861266015382233e-10 -3.600766376067986e-09 
-9.633090896847484e-09 -1.1068694261391292e-08 12661.044237568585 
-1.1068694261391292e-08 -2.3684158226920275e-08 8.237242141038128e-09 
12661.044237568585 8.237242141038128e-09 -1.990955376371703e-08 
1.329677125210007e-08 9.774547402194348e-09 12661.044237565893 
9.774547402194348e-09 -2.0393736628673008e-09 -8.169971026310876e-11 
12661.044237565893 -8.169971026310876e-11 1.6922766192633275e-09 
-1.2830267478721244e-08 -9.7777918544746e-09 12661.044237564483 
-9.7777918544746e-09 -8.58255138212763e-09 2.417469413596793e-10 
12661.044237564483 2.417469413596793e-10 -8.339165097672867e-09 
-1.4747741510810421e-08 -6.265759937508541e-09 12661.044237557808 
-6.265759937508541e-09 -9.15984323246114e-09 1.067494670678166e-09 
12661.044237557808 1.067494670678166e-09 -7.78764191084311e-09 
6.192569709025536e-09 -1.3731671201864976e-08 12661.044237555496 
-1.3731671201864976e-08 1.6492924309884135e-09 -1.4653730992000814e-09 
12661.044237555496 -1.4653730992000814e-09 9.057006124803085e-09 
1.502815011653813e-08 3.784110665063282e-09 12661.04423755658 
3.784110665063282e-09 1.73555464430335e-08 8.293976315822171e-10 
12661.04423755658 8.293976315822171e-10 1.0843654223520821e-08 
1.546604345575605e-08 6.595057017785142e-09 12661.04423755784 
6.595057017785142e-09 2.184696508823777e-08 3.3674147395432487e-09 
12661.04423755784 3.3674147395432487e-09 1.1582597993722632e-08 
1.2508566598115779e-08 -1.6360778140532625e-08 12661.044237561016 
-1.6360778140532625e-08 1.0741842286632151e-08 3.669013019186241e-09 
12661.044237561016 3.669013019186241e-09 7.390196119150694e-09 
-1.1888217661621152e-08 1.1870136311938477e-09 12661.044237563901 
1.1870136311938477e-09 1.3598982835754779e-09 7.322024853128243e-09 
12661.044237563901 7.322024853128243e-09 6.694632558362858e-11 
1.1132157091327333e-08 1.24469413991981e-08 12661.044237572069 
1.24469413991981e-08 2.8213469883970188e-08 7.899908548833124e-09 
12661.044237572069 7.899908548833124e-09 2.178034779476957e-08 
1.6219122936137664e-08 6.374477856069466e-10 12661.044237574395 
6.374477856069466e-10 1.2146773593712484e-08 1.584751522014308e-08 
12661.044237574395 1.584751522014308e-08 7.0332982928800015e-09 
3.761829013470442e-09 1.0404060008996697e-08 12661.044237567661 
1.0404060008996697e-08 6.766625635208643e-09 9.348074566031978e-09 
12661.044237567661 9.348074566031978e-09 -9.020631003922878e-11 
1.0482963674009233e-08 -1.081465665455625e-08 12661.04423756113 
-1.081465665455625e-08 2.9801181963581493e-09 -2.2280761206785087e-09 
12661.04423756113 -2.2280761206785087e-09 -4.658734155078263e-09 
-1.1910273920333671e-08 -4.358910137986012e-09 12661.044237560222 
-4.358910137986012e-09 -1.7297763446369926e-08 -3.754802333295775e-09 
12661.044237560222 -3.754802333295775e-09 -8.828567355108941e-09 
1.5415479709028698e-08 4.152610191345407e-09 12661.044237562917 
4.152610191345407e-09 2.269953415969226e-08 5.186572095912338e-09 
12661.044237562917 5.186572095912338e-09 3.025125666572319e-08 
4.17692395912653e-09 -2.6026663419430898e-09 12661.044237562315 
-2.6026663419430898e-09 1.4240751226360328e-09 -1.7491677645118633e-09 
12661.044237562315 -1.7491677645118633e-09 -9.305054314461802e-11 
-4.067638233487522e-08 -5.694459096588125e-09 12661.044237558508 
-5.694459096588125e-09 -4.7525861153646334e-08 -6.93097215640953e-09 
12661.044237558508 -6.93097215640953e-09 -3.35991477748512e-08 
-6.808915435342372e-09 -2.019608009017229e-08 12661.044237562994 
-2.019608009017229e-08 -1.4104182241303944e-08 -1.2177038621035286e-09 
12661.044237562994 -1.2177038621035286e-09 -7.488628654069184e-09 
6.4801379070936975e-09 -4.257897483889312e-09 12661.04423756865 
-4.257897483889312e-09 5.757155921484599e-09 2.5409082960864066e-09 
12661.04423756865 2.5409082960864066e-09 -2.88434634200083e-09 
1.5528351416960056e-08 -2.120374334509371e-09 12661.044237566663 
-2.120374334509371e-09 1.8757730510162132e-08 1.0464064447801843e-09 
12661.044237566663 1.0464064447801843e-09 1.1151376836861485e-08 
-7.677440520766412e-09 -1.4579850592209764e-09 12661.04423757216 
-1.4579850592209764e-09 -7.884535532195643e-09 1.3055033369328797e-09 
12661.04423757216 1.3055033369328797e-09 -5.2654696983969615e-09 
2.7983466765167363e-09 1.2613278986606756e-08 12661.04423756794 
1.2613278986606756e-08 -3.3460607312749803e-09 -4.5694050336344346e-09 
12661.04423756794 -4.5694050336344346e-09 -2.492101162014672e-09 
-1.0603059834158804e-08 -4.556807916220927e-09 12661.044237559408 
-4.556807916220927e-09 -2.9770901188397373e-08 3.6232391482609133e-09 
12661.044237559408 3.6232391482609133e-09 -2.9593205160411402e-08 
4.5402876382131845e-09 -7.177966813742881e-09 12661.044237554506 
-7.177966813742881e-09 -2.659613537268588e-09 4.471024516091771e-09 
12661.044237554506 4.471024516091771e-09 -1.5418276915472997e-09 
2.305868616996016e-08 5.214777492372522e-09 12661.044237560494 
5.214777492372522e-09 1.2455369927234942e-08 -6.451148987130858e-10 
12661.044237560494 -6.451148987130858e-10 2.302980237892949e-08 
-2.007710569318863e-09 1.4142042562765006e-08 12661.044237561991 
1.4142042562765006e-08 8.924427902584183e-10 2.7306331298349264e-09 
12661.044237561991 2.7306331298349264e-09 -7.065431513647997e-10 
-1.7610047721713793e-08 1.6662778921914343e-08 12661.044237561046 
1.6662778921914343e-08 2.6050425235947458e-09 2.116998592300287e-09 
12661.044237561046 2.116998592300287e-09 1.8524384267412236e-09 
-1.0351823451196126e-08 -4.028764284710964e-09 12661.044237566904 
-4.028764284710964e-09 5.894447639784714e-09 -4.3221241196127795e-09 
12661.044237566904 -4.3221241196127795e-09 1.0203212572867133e-08 
4.978793295461787e-09 -2.4867318244182587e-09 12661.044237572747 
-2.4867318244182587e-09 3.840616809495431e-09 -5.749344256863265e-09 
12661.044237572747 -5.749344256863265e-09 4.420074456430724e-09 
-2.0289044886914032e-08 -8.532851969393343e-09 12661.044237568654 
-8.532851969393343e-09 -3.222759109762289e-08 -2.9060488319875015e-09 
12661.044237568654 -2.9060488319875015e-09 -2.3222203468807686e-08 
1.3556100607708383e-09 1.2592187321016121e-08 12661.044237571203 
1.2592187321016121e-08 7.585758567008472e-10 -1.3126576902342835e-09 
12661.044237571203 -1.3126576902342835e-09 -4.3190619526052645e-10 
-1.0713769322611652e-08 3.5678216813672558e-09 12661.044237581003 
3.5678216813672558e-09 -1.97591589818345e-08 3.2492274269106887e-09 
12661.044237581003 3.2492274269106887e-09 -1.565907847321225e-08 
5.726623943349184e-09 -4.5585827732286145e-09 12661.044237574768 
-4.5585827732286145e-09 -8.326709738154891e-09 1.5540130861623237e-09 
12661.044237574768 1.5540130861623237e-09 -6.317783485139102e-09 
-1.8149516689547347e-09 -5.766749434147121e-09 12661.044237561877 
-5.766749434147121e-09 -1.5442696078234758e-09 -3.4253726160654255e-09 
12661.044237561877 -3.4253726160654255e-09 -3.8978364985340014e-09 
2.983230100463453e-08 -8.778804975314022e-09 12661.044237566111 
-8.778804975314022e-09 2.068354987617978e-08 9.825541327532437e-10 
12661.044237566111 9.825541327532437e-10 2.32097867824806e-08 
2.8095128008904353e-09 -1.2242632116826306e-08 12661.044237562617 
-1.2242632116826306e-08 -7.115365794189788e-09 2.8433718194591266e-09 
12661.044237562617 2.8433718194591266e-09 -2.3597248537666067e-09 
-4.597530007559479e-08 -1.1138344784713434e-08 12661.044237557979 
-1.1138344784713434e-08 -3.259115720843621e-08 6.487627345632011e-10 
12661.044237557979 6.487627345632011e-10 -2.5513518684706145e-08 
7.894334037332082e-09 -5.451267301454933e-09 12661.044237568874 
-5.451267301454933e-09 1.7793170967555625e-08 -2.756497726970221e-09 
12661.044237568874 -2.756497726970221e-09 2.5070530425360857e-08 
-4.037153283778728e-09 4.704673814516245e-09 12661.044237575614 
4.704673814516245e-09 6.535094580523681e-09 -1.3232744334784466e-08 
12661.044237575614 -1.3232744334784466e-08 1.1394418917489542e-08 
6.1008558562157245e-09 4.574954400907582e-09 12661.044237567317 
4.574954400907582e-09 6.9572083187824205e-09 -1.116656931086956e-08 
12661.044237567317 -1.116656931086956e-08 9.972445711584317e-09 
-3.630577729188776e-10 1.5658871123236534e-08 12661.04423757321 
1.5658871123236534e-08 2.2680506574309373e-08 -7.539293138862103e-09 
12661.04423757321 -7.539293138862103e-09 3.091508983889269e-09 
3.710198579665482e-09 -4.362475463412783e-09 12661.044237578053 
-4.362475463412783e-09 1.4550529555680409e-08 -6.127832472195868e-10 
12661.044237578053 -6.127832472195868e-10 2.6362927534059834e-09 
-9.682693121985506e-09 2.14988917959067e-09 12661.044237573764 
2.14988917959067e-09 -2.250404211068585e-08 8.269244568635495e-09 
12661.044237573764 8.269244568635495e-09 -2.0718346520105108e-08 
-3.928471619098427e-09 1.5407656242609042e-11 12661.044237563501 
1.5407656242609042e-11 -8.954578698317792e-09 1.1224481814450188e-08 
12661.044237563501 1.1224481814450188e-08 -1.469794681867443e-08 
3.982353718165741e-09 -2.778497558872872e-10 12661.044237564221 
-2.778497558872872e-10 3.0489618951958524e-09 1.2076589978713435e-08 
12661.044237564221 1.2076589978713435e-08 3.737677541314745e-09 
5.960413753471484e-09 1.0310517625786726e-08 12661.044237564605 
1.0310517625786726e-08 3.4548722744174717e-09 3.41485323206203e-09 
12661.044237564605 3.41485323206203e-09 3.971456724060968e-09 
-8.564187273560874e-09 9.610170244339003e-09 12661.04423757218 
9.610170244339003e-09 -2.4279805422805494e-09 -8.646566810422675e-10 
12661.04423757218 -8.646566810422675e-10 5.567805878229177e-09 
1.615560327488627e-08 -2.136739646224976e-09 12661.044237568114 
-2.136739646224976e-09 1.2922566186168248e-08 2.8478018247877527e-09 
12661.044237568114 2.8478018247877527e-09 2.8393868094600445e-08 
-2.6660426248403124e-08 -4.319343368981765e-09 12661.04423756862 
-4.319343368981765e-09 -2.3708268210607138e-08 -9.43423939059092e-10 
12661.04423756862 -9.43423939059092e-10 -1.7000927709093236e-08 
2.1589710096861864e-08 6.7625149731765726e-09 12661.044237561526 
6.7625149731765726e-09 1.2579755253469763e-08 -1.379688857778667e-09 
12661.044237561526 -1.379688857778667e-09 1.1947150748213009e-08 
-1.4392345468346958e-09 4.0490503868099234e-09 12661.044237573753 
4.0490503868099234e-09 1.3537986833718533e-08 -6.416101748782418e-09 
12661.044237573753 -6.416101748782418e-09 -4.5691987179006e-09 
2.3641315209370525e-09 -1.814687277967962e-08 12661.044237572889 
-1.814687277967962e-08 1.0798885822728825e-08 -1.1923555471075043e-09 
12661.044237572889 -1.1923555471075043e-09 -2.1133989062053206e-09 
1.5492896069523973e-08 -3.0574753940338687e-09 12661.044237572905 
-3.0574753940338687e-09 1.75803044369377e-08 -4.784234791207096e-10 
12661.044237572905 -4.784234791207096e-10 3.8849263753447795e-09 
9.641351749613979e-09 -3.1055273234613913e-10 12661.044237559305 
-3.1055273234613913e-10 -7.63271627500089e-10 -7.057919876456055e-09 
12661.044237559305 -7.057919876456055e-09 -7.913566386132926e-09 
5.138106169540985e-09 -3.3608263026653438e-09 12661.04423756324 
-3.3608263026653438e-09 -3.5572917035067815e-10 -3.231082552938798e-09 
12661.04423756324 -3.231082552938798e-09 -4.808466594686654e-09 
-1.8361745682909233e-08 4.1917402425025926e-10 12661.044237569882 
4.1917402425025926e-10 -1.5366952723410043e-08 3.740766157230501e-09 
12661.044237569882 3.740766157230501e-09 -1.5783780569880207e-08 
-1.088866030869285e-08 -5.897874421724761e-09 12661.04423757773 
-5.897874421724761e-09 -1.0209010105349962e-08 4.900000281732803e-10 
12661.04423757773 4.900000281732803e-10 5.462623761112464e-09 
-2.112743248015831e-08 -1.0837415844509143e-08 12661.044237570479 
-1.0837415844509143e-08 -2.1781156951052436e-08 5.010114930423218e-09 
12661.044237570479 5.010114930423218e-09 1.0138597693359845e-09 
-1.4193118012331936e-08 -5.464154699986797e-09 12661.044237568529 
-5.464154699986797e-09 -1.713685565811186e-08 9.695825080942275e-09 
12661.044237568529 9.695825080942275e-09 -4.880448434500112e-09 
1.8173073463475733e-08 -6.472672734203365e-09 12661.044237563814 
-6.472672734203365e-09 2.942246946949569e-09 9.373106745112674e-09 
12661.044237563814 9.373106745112674e-09 7.335645187505658e-09 
2.4720943771867206e-08 4.610764691808092e-09 12661.044237567065 
4.610764691808092e-09 9.39913399795236e-09 7.905317545741126e-10 
12661.044237567065 7.905317545741126e-10 9.697185984267022e-09 
9.618245280555255e-09 8.743652410061356e-10 12661.04423756762 
8.743652410061356e-10 -4.02641223209698e-09 -3.7555743633365336e-09 
12661.04423756762 -3.7555743633365336e-09 -2.1986525808706448e-09 
9.73709094498327e-10 6.866489411822392e-09 12661.044237565642 
6.866489411822392e-09 -3.736664589898316e-09 -6.532764073228726e-09 
12661.044237565642 -6.532764073228726e-09 -9.305955831294939e-09 
-1.3584656348948153e-08 2.4471828407448547e-09 12661.044237560227 
2.4471828407448547e-09 -2.21456592085957e-08 -1.3190656956361631e-09 
12661.044237560227 -1.3190656956361631e-09 -2.1945742066470097e-08 
1.456861085999486e-08 3.251792149585286e-09 12661.04423755735 
3.251792149585286e-09 8.14805510507575e-09 -8.618451450772984e-09 
12661.04423755735 -8.618451450772984e-09 4.149099272476361e-09 
-1.791848727947323e-08 1.3560382110680555e-09 12661.044237560167 
1.3560382110680555e-09 -6.585599801078265e-09 -1.0266176359973904e-08 
12661.044237560167 -1.0266176359973904e-08 -8.051402042851029e-09 
-4.7997005832129705e-09 6.222668577222906e-09 12661.04423756367 
6.222668577222906e-09 -1.0624381886175243e-08 1.0717176225156876e-08 
12661.04423756367 1.0717176225156876e-08 1.7591504966784259e-09 
-1.6698112741662175e-08 8.057948465000435e-09 12661.044237570612 
8.057948465000435e-09 -5.455519492324831e-09 1.0969240245514661e-08 
12661.044237570612 1.0969240245514661e-08 -5.8602399549316066e-09 
2.0747159608757326e-09 6.524195409245581e-09 12661.044237572276 
6.524195409245581e-09 1.926413729500206e-08 -4.134833012764483e-09 
12661.044237572276 -4.134833012764483e-09 1.4120874878786473e-08 
-2.206792944280716e-08 -3.2113151263472792e-09 12661.044237575432 
-3.2113151263472792e-09 -8.672566127479431e-09 -3.5010865846143385e-11 
12661.044237575432 -3.5010865846143385e-11 -9.331450438204647e-09 
1.7800513377115743e-09 -3.515015508003957e-09 12661.044237568527 
-3.515015508003957e-09 -7.0068953261326944e-09 6.872547745963957e-09 
12661.044237568527 6.872547745963957e-09 -2.0127657304098619e-10 
3.168839790067072e-08 -1.1207406869529869e-08 12661.044237562895 
-1.1207406869529869e-08 1.2591973168036877e-10 7.368892998476605e-10 
12661.044237562895 7.368892998476605e-10 1.5569975243775588e-08 
-1.7316621152691414e-08 -8.525260569273735e-09 12661.04423756127 
-8.525260569273735e-09 -2.3133847708220124e-08 9.97245087861768e-11 
12661.04423756127 9.97245087861768e-11 -2.1337428301975807e-08 
5.849295024816672e-09 -5.021792120101762e-09 12661.044237561511 
-5.021792120101762e-09 8.31613863699068e-09 2.060393288707436e-09 
12661.044237561511 2.060393288707436e-09 -8.19704754237407e-09 
9.251365288407631e-09 3.3769505895188505e-09 12661.044237553497 
3.3769505895188505e-09 -2.1099655740421085e-10 -7.136610123529397e-10 
12661.044237553497 -7.136610123529397e-10 -8.994731789538464e-09 
-3.4744293021848197e-08 -3.075175736386888e-10 12661.044237552716 
-3.075175736386888e-10 -3.002121250720109e-08 -6.108176418653247e-09 
12661.044237552716 -6.108176418653247e-09 -2.6057020844417666e-08 
3.2140430798624877e-09 -6.4941891525823975e-09 12661.044237562743 
-6.4941891525823975e-09 9.495513050642416e-09 -7.836004554051822e-09 
12661.044237562743 -7.836004554051822e-09 8.273077641157497e-09 
-2.045444620212512e-08 -1.7761607437243023e-09 12661.044237571843 
-1.7761607437243023e-09 -6.826973772785651e-09 1.4389340277528415e-09 
12661.044237571843 1.4389340277528415e-09 -1.065775771731668e-08 
1.6469366877073878e-08 -4.277374645372094e-09 12661.04423756951 
-4.277374645372094e-09 1.5857873003719723e-08 1.2076839931426284e-08 
12661.04423756951 1.2076839931426284e-08 1.5734065024459223e-08 
-2.8764170048557712e-08 1.4885056761503366e-08 12661.044237579445 
1.4885056761503366e-08 -1.4588868129121635e-08 2.4243521433191956e-09 
12661.044237579445 2.4243521433191956e-09 -1.6778278680692705e-08 
-5.5317618048111625e-09 1.8845167187203556e-10 12661.044237581533 
1.8845167187203556e-10 -1.0500668490521593e-08 5.152321222821862e-09 
12661.044237581533 5.152321222821862e-09 -4.953846666948825e-09 
1.5386198991799613e-08 1.057631181936064e-09 12661.044237570504 
1.057631181936064e-09 4.083781191901328e-10 2.1160542969319355e-09 
12661.044237570504 2.1160542969319355e-09 3.6954675808526593e-09 
-1.5766827456904222e-08 9.160362452023436e-09 12661.044237564409 
9.160362452023436e-09 -3.8725548126839915e-08 -1.722734197666834e-10 
12661.044237564409 -1.722734197666834e-10 -3.004766293191683e-08 
-2.5590784204195835e-08 1.0383420992820737e-08 12661.044237560714 
1.0383420992820737e-08 -3.701237850419069e-08 -8.761666972884999e-09 
12661.044237560714 -8.761666972884999e-09 -3.430150303492633e-08 
1.3373010036925544e-08 -2.7340134281594337e-09 12661.044237561217 
-2.7340134281594337e-09 1.3100426596392098e-08 -5.907138919446482e-09 
12661.044237561217 -5.907138919446482e-09 -1.6173570096512143e-10 
-6.024869477285431e-09 -1.343824782662937e-09 12661.044237565136 
-1.343824782662937e-09 1.804145607746457e-08 2.5309176839618425e-09 
12661.044237565136 2.5309176839618425e-09 5.170706673680944e-09 
1.681335432098333e-09 -8.763430835900855e-09 12661.044237576343 
-8.763430835900855e-09 1.4431681554849614e-08 4.828113014819773e-09 
12661.044237576343 4.828113014819773e-09 1.443546247046148e-08 
-1.671122839732322e-08 6.360149469594583e-09 12661.044237574046 
6.360149469594583e-09 -2.4359356604871724e-08 1.2490189243770248e-09 
12661.044237574046 1.2490189243770248e-09 -1.507025634409305e-08 
-1.9311678881289125e-09 5.312470628807408e-10 12661.044237570708 
5.312470628807408e-10 -1.192430097689014e-08 -6.896625223047236e-09 
12661.044237570708 -6.896625223047236e-09 -1.0636018302376011e-08 
2.1334950068049065e-08 7.807510034901264e-10 12661.044237572298 
7.807510034901264e-10 2.261077689203014e-08 -1.0638083849040355e-08 
12661.044237572298 -1.0638083849040355e-08 1.3139602788846379e-08 
1.0705861115877355e-08 1.410351331797355e-09 12661.044237579965 
1.410351331797355e-09 1.9182358855039527e-08 9.40902172110456e-10 
12661.044237579965 9.40902172110456e-10 1.1475188353806465e-08 
2.5475748551519806e-08 -1.5790800187899815e-08 12661.044237568372 
-1.5790800187899815e-08 1.815027281759194e-08 3.3874619879233633e-09 
12661.044237568372 3.3874619879233633e-09 1.3033968671117498e-08 
-8.739920662672057e-11 -3.479084550313373e-10 12661.044237560023 
-3.479084550313373e-10 -9.307733842576469e-10 9.966388069869851e-09 
12661.044237560023 9.966388069869851e-09 -7.364867819014284e-09 
1.433555419551549e-08 -1.4018155170933724e-09 12661.044237558437 
-1.4018155170933724e-09 1.6579871726593583e-08 -2.3313110077796334e-09 
12661.044237558437 -2.3313110077796334e-09 1.1152762090635704e-08 
4.540294247125196e-09 1.7628710862360691e-09 12661.0442375603 
1.7628710862360691e-09 6.5400921977699084e-09 -9.62358362332485e-09 
12661.0442375603 -9.62358362332485e-09 5.803129030825334e-09 
-2.728895384064009e-09 1.7466798537008914e-09 12661.044237571112 
1.7466798537008914e-09 9.543150586444176e-10 -1.1187111362470407e-08 
12661.044237571112 -1.1187111362470407e-08 4.047937511922758e-09 
-1.8338964620664955e-08 -6.630491198882786e-09 12661.044237577787 
-6.630491198882786e-09 -8.08164490191651e-09 -1.1230089347036557e-08 
12661.044237577787 -1.1230089347036557e-08 -5.875515597034562e-09 
1.6889704574971585e-08 -3.4160732043175395e-09 12661.044237567512 
-3.4160732043175395e-09 1.450427685323791e-08 1.1757933261034085e-10 
12661.044237567512 1.1757933261034085e-10 9.56243616156941e-09 
-2.7265901195516108e-08 -2.151223907626405e-10 12661.044237572023 
-2.151223907626405e-10 -2.0905410375787238e-08 8.687744040803843e-09 
12661.044237572023 8.687744040803843e-09 -2.347269297336947e-08 
-8.1133325243688e-10 -1.7914919747449872e-09 12661.04423756948 
-1.7914919747449872e-09 5.678619299307513e-09 1.7920735232695972e-09 
12661.04423756948 1.7920735232695972e-09 9.201262996646691e-10 
-1.5611499201874167e-08 -2.0032316543758157e-10 12695.70207957354 
-2.0032316543758157e-10 -2.242762052098668e-08 -5.891933325365059e-09 
12695.70207957354 -5.891933325365059e-09 -1.0985962590464356e-08 
8.915864869002217e-09 4.433896868327073e-09 12695.7020795749 
4.433896868327073e-09 -6.509832435315275e-09 -1.4186253539864409e-09 
12695.7020795749 -1.4186253539864409e-09 2.2436226930649117e-09 
8.95396359986235e-10 -1.330276126281436e-08 12695.702079577839 
-1.330276126281436e-08 -5.2424219193622455e-11 -3.853631279764587e-09 
12695.702079577839 -3.853631279764587e-09 -2.3975531861852637e-09 
-2.3900802864044787e-08 -1.034554304090358e-08 12695.702079582134 
-1.034554304090358e-08 -1.7079158288345597e-08 -3.234551799285291e-09 
12695.702079582134 -3.234551799285291e-09 -1.5942933304775068e-08 
1.4383017947164587e-09 -9.902870778112369e-09 12695.70207958123 
-9.902870778112369e-09 8.765345534127341e-10 -1.5777577325979075e-09 
12695.70207958123 -1.5777577325979075e-09 1.876847484795038e-09 
1.7504640734431472e-08 1.8993172830804705e-09 12695.702079586634 
1.8993172830804705e-09 2.188945479535679e-08 2.4905863621315866e-09 
12695.702079586634 2.4905863621315866e-09 1.761376981060688e-08 
2.0612218853708595e-08 -6.853918792645538e-09 12695.702079581524 
-6.853918792645538e-09 1.6572938803755952e-08 -4.188882336692984e-10 
12695.702079581524 -4.188882336692984e-10 1.3470541573980238e-08 
-1.2368676075091088e-08 -1.8687943958616535e-08 12695.702079577288 
-1.8687943958616535e-08 -1.102669860145573e-08 -4.3097470381862816e-09 
12695.702079577288 -4.3097470381862816e-09 -1.0552649782857763e-08 
-1.0533143820023394e-08 -1.2527538872796288e-09 12695.702079577362 
-1.2527538872796288e-09 -1.7445106090621966e-09 8.182356425852957e-10 
12695.702079577362 8.182356425852957e-10 -3.022384342179931e-09 
1.0750892144310681e-08 -2.460735532993075e-09 12695.702079568935 
-2.460735532993075e-09 2.2050434369452797e-08 -4.051877895595098e-09 
12695.702079568935 -4.051877895595098e-09 1.3755840312374542e-08 
1.9967359075367157e-08 -4.890938252726021e-09 12695.702079578286 
-4.890938252726021e-09 2.1625641391300872e-08 -9.007063716383941e-10 
12695.702079578286 -9.007063716383941e-10 1.62970832513377e-08 
6.9243959009778525e-09 4.086556815620506e-09 12695.702079575474 
4.086556815620506e-09 1.256801546343686e-08 4.677508211136396e-09 
12695.702079575474 4.677508211136396e-09 4.292380569179461e-09 
1.2512020655885692e-08 -4.907869934659119e-09 12695.70207957278 
-4.907869934659119e-09 2.7775629363512045e-09 -7.998702063864887e-09 
12695.70207957278 -7.998702063864887e-09 7.065992457480719e-09 
-1.1285219778327963e-08 2.949159355064902e-09 12695.702079582456 
2.949159355064902e-09 -1.714360451600631e-08 -8.767141521136202e-09 
12695.702079582456 -8.767141521136202e-09 -1.276239383927789e-08 
-1.0539857762895008e-09 1.1507718305595651e-08 12695.702079575665 
1.1507718305595651e-08 4.807678708656782e-09 -1.782421420233203e-09 
12695.702079575665 -1.782421420233203e-09 -2.1864986110018237e-09 
1.1647131298425073e-08 7.322144699519257e-09 12695.702079579652 
7.322144699519257e-09 1.4881773899530244e-08 5.12058024414531e-09 
12695.702079579652 5.12058024414531e-09 1.569117858401358e-08 
-2.949485322552042e-08 -1.8419108489648103e-09 12695.70207958218 
-1.8419108489648103e-09 -2.6879884171770562e-08 7.867939903138365e-10 
12695.70207958218 7.867939903138365e-10 -2.2827248627611725e-08 
-1.43630608058118e-08 -1.1614807839822736e-08 12695.702079574341 
-1.1614807839822736e-08 -1.8056954050427888e-08 -3.2481876581600216e-09 
12695.702079574341 -3.2481876581600216e-09 -1.314146310656347e-08 
1.0482715073246473e-08 2.3515968299190837e-09 12695.702079574306 
2.3515968299190837e-09 2.6895444410919935e-09 -1.8174418873371427e-09 
12695.702079574306 -1.8174418873371427e-09 1.2057342731487009e-08 
9.004936419376592e-09 -8.608706452261038e-09 12695.702079570588 
-8.608706452261038e-09 1.1667957112297837e-08 -2.9367999228634173e-09 
12695.702079570588 -2.9367999228634173e-09 1.1636414737139341e-08 
-8.098650686033823e-09 9.159995356527107e-09 12695.702079587421 
9.159995356527107e-09 -1.9169247167507727e-08 -3.943829456665237e-09 
12695.702079587421 -3.943829456665237e-09 -1.2692064748365894e-08 
7.025279407429675e-09 1.2280022798421955e-08 12695.70207958605 
1.2280022798421955e-08 -8.039514450999574e-09 -4.9764165537828895e-09 
12695.70207958605 -4.9764165537828895e-09 -1.8951709585378395e-09 
4.838316570997899e-09 2.0910262730800865e-09 12695.702079582243 
2.0910262730800865e-09 -1.8243027677759427e-09 -2.9750788634909432e-09 
12695.702079582243 -2.9750788634909432e-09 -2.58906215066092e-09 
-4.529055059739101e-09 -2.6004404514482145e-09 12695.702079589913 
-2.6004404514482145e-09 -2.633981061483236e-09 5.54420447800624e-10 
12695.702079589913 5.54420447800624e-10 -9.651840560958656e-09 
1.5993691591227923e-09 5.29148382750168e-09 12695.702079578521 
5.29148382750168e-09 -4.551528468215109e-09 -1.2708981833540714e-09 
12695.702079578521 -1.2708981833540714e-09 -4.9994956251796225e-09 
7.491713258695146e-09 9.402724091976235e-09 12695.702079576842 
9.402724091976235e-09 1.0525047533372946e-08 4.638610583560417e-09 
12695.702079576842 4.638610583560417e-09 1.0008758243994886e-08 
-1.091349361663106e-08 7.167004521386327e-09 12695.702079578721 
7.167004521386327e-09 4.4766069995479125e-09 2.035655821962378e-09 
12695.702079578721 2.035655821962378e-09 4.306957105663771e-09 
-1.9460392330128057e-08 -2.8574420671006016e-09 12695.702079583247 
-2.8574420671006016e-09 -5.852454428583389e-10 -2.622915672442194e-10 
12695.702079583247 -2.622915672442194e-10 -2.0968374029209385e-09 
9.204417745045998e-09 -6.127590258854787e-10 12695.702079588129 
-6.127590258854787e-10 3.342753041243468e-09 1.1828628567060313e-08 
12695.702079588129 1.1828628567060313e-08 9.184340855137354e-09 
-1.1953440447782888e-08 4.87343550822926e-09 12695.702079577393 
4.87343550822926e-09 -3.3672708477178737e-08 7.020273637175051e-09 
12695.702079577393 7.020273637175051e-09 -1.7214261122314468e-08 
-4.315399133692851e-09 2.826717660911681e-09 12695.70207957956 
2.826717660911681e-09 -6.975695752125398e-09 -1.412431620259627e-09 
12695.70207957956 -1.412431620259627e-09 -8.614701514667678e-09 
1.2981926368025487e-08 -7.4353366416052706e-09 12695.702079578692 
-7.4353366416052706e-09 1.0309037474595505e-08 -6.44369242706668e-09 
12695.702079578692 -6.44369242706668e-09 8.1399025143854e-10 
9.858129541935473e-09 -9.572592210442773e-09 12695.702079572427 
-9.572592210442773e-09 4.1677130108102745e-09 -4.750748886061944e-09 
12695.702079572427 -4.750748886061944e-09 -4.377429619569889e-09 
-7.4126277274441086e-09 -6.857574465820811e-09 12695.702079572071 
-6.857574465820811e-09 1.1735180756479332e-10 -1.6261508866356524e-09 
12695.702079572071 -1.6261508866356524e-09 -4.404993706047687e-09 
2.6446047935840867e-08 -2.4057619217387093e-09 12695.702079576442 
-2.4057619217387093e-09 1.696283860892595e-08 1.1358783594364312e-09 
12695.702079576442 1.1358783594364312e-09 2.01250903627891e-08 
-1.0109704152384954e-08 -2.484676375625163e-09 12695.70207957899 
-2.484676375625163e-09 -2.3413629394710092e-08 4.266372434105037e-09 
12695.70207957899 4.266372434105037e-09 -1.1559216228903132e-08 
-1.7630294446780866e-08 -6.499095986349022e-09 12695.7020795789 
-6.499095986349022e-09 -1.8768269644097637e-08 2.578724069165515e-09 
12695.7020795789 2.578724069165515e-09 -6.792304372252293e-09 
-2.13201026037345e-08 -1.9810386122464346e-09 12695.702079584249 
-1.9810386122464346e-09 -5.382232783546972e-09 1.455201848929113e-09 
12695.702079584249 1.455201848929113e-09 -7.698666118238207e-11 
-1.9861042420232343e-08 -6.293309637014951e-09 12695.702079584928 
-6.293309637014951e-09 -7.451316674307934e-09 -5.389643454767299e-09 
12695.702079584928 -5.389643454767299e-09 -6.117763046236048e-09 
1.3402582954886189e-08 -1.1238484934395801e-08 12695.702079579674 
-1.1238484934395801e-08 1.3478902775322613e-08 -6.307809619125519e-09 
12695.702079579674 -6.307809619125519e-09 9.538657506402456e-09 
1.4786160607087663e-08 1.4505548251291004e-08 12695.702079565262 
1.4505548251291004e-08 3.297809530854575e-08 6.344302320810153e-09 
12695.702079565262 6.344302320810153e-09 1.6235001598340292e-08 
-8.287887137687212e-09 1.3413720910629346e-09 12695.702079572684 
1.3413720910629346e-09 -3.6267182301309384e-09 3.144449674122975e-10 
12695.702079572684 3.144449674122975e-10 -1.5189834914396272e-08 
-2.056928873246963e-09 -2.7376298261284763e-09 12695.702079566505 
-2.7376298261284763e-09 -9.907777886893244e-09 -3.4809876735467753e-09 
12695.702079566505 -3.4809876735467753e-09 -1.5156027952366893e-08 
-3.1872723140844537e-09 -8.643753519799405e-09 12695.702079571549 
-8.643753519799405e-09 -1.04981434294916e-08 1.9434198142125443e-09 
12695.702079571549 1.9434198142125443e-09 -6.7104376896105444e-09 
1.145713615738877e-08 -3.4975180162181828e-09 12695.702079571944 
-3.4975180162181828e-09 4.631592140569178e-09 3.0448012361475397e-09 
12695.702079571944 3.0448012361475397e-09 9.352042682252837e-09 
2.1172152838145307e-08 6.683461947298786e-10 12695.702079566694 
6.683461947298786e-10 1.4431423304807726e-08 -1.7060025906716629e-09 
12695.702079566694 -1.7060025906716629e-09 1.762757703057658e-08 
-6.896408203115298e-09 3.5690508433148703e-09 12695.702079577944 
3.5690508433148703e-09 -7.313300942075247e-09 3.728037762995776e-09 
12695.702079577944 3.728037762995776e-09 -3.788566225052007e-09 
-1.54608187644748e-08 -5.594977787516256e-09 12695.702079576366 
-5.594977787516256e-09 -7.431870647094953e-09 9.977905063124058e-09 
12695.702079576366 9.977905063124058e-09 -1.3505470922618316e-09 
-1.9285562260208585e-08 -7.12039718734871e-09 12695.702079576771 
-7.12039718734871e-09 -2.5926034640129927e-09 7.884536557513733e-09 
12695.702079576771 7.884536557513733e-09 2.3870756717397427e-09 
1.1927280519981166e-08 1.1980968686320401e-08 12695.702079584058 
1.1980968686320401e-08 1.1698404355312542e-08 5.48388216273953e-10 
12695.702079584058 5.48388216273953e-10 1.2603114023728505e-08 
5.403798761608576e-09 1.7372518579002769e-09 12695.702079569375 
1.7372518579002769e-09 2.0399264562868982e-08 7.250766205784948e-10 
12695.702079569375 7.250766205784948e-10 1.5531035024987568e-08 
5.757842553038294e-09 -6.240229962717532e-09 12695.70207957971 
-6.240229962717532e-09 6.949933703678701e-09 -5.664552459607708e-09 
12695.70207957971 -5.664552459607708e-09 3.225590092056265e-09 
-7.19522100138943e-09 9.434385190995062e-11 12695.70207957602 
9.434385190995062e-11 -1.5411367695500896e-08 5.873328349036071e-10 
12695.70207957602 5.873328349036071e-10 -2.0233278480744745e-08 
-4.490116071891497e-09 5.464316848696261e-09 12695.70207957941 
5.464316848696261e-09 -7.695357357498911e-09 -2.8215497566710197e-09 
12695.70207957941 -2.8215497566710197e-09 -1.2386305198465981e-08 
2.8391416639395677e-08 5.360153881909275e-09 12695.702079572073 
5.360153881909275e-09 1.987073641281084e-08 -2.1136390287969235e-09 
12695.702079572073 -2.1136390287969235e-09 1.97022084327474e-08 
-4.806019805537299e-09 4.4390338657689155e-09 12695.70207955839 
4.4390338657689155e-09 -1.2265610463748525e-08 5.319752361891466e-09 
12695.70207955839 5.319752361891466e-09 -6.74844799230619e-10 
-1.676664798621819e-08 1.5160020552095717e-09 12695.702079567664 
1.5160020552095717e-09 -1.6194628963530806e-08 3.418502424434102e-09 
12695.702079567664 3.418502424434102e-09 -4.8320219040361875e-09 
-2.7335531669425607e-08 -4.708401306714876e-09 12695.702079577546 
-4.708401306714876e-09 -1.7191964377455478e-08 3.0229587040463464e-09 
12695.702079577546 3.0229587040463464e-09 -1.073450186645444e-08 
8.721300257225611e-10 -7.360014303868914e-09 12695.702079581592 
-7.360014303868914e-09 2.7703714712459184e-09 7.522126409684262e-09 
12695.702079581592 7.522126409684262e-09 8.738201148546105e-09 
9.637835713859013e-09 -8.115267154603555e-09 12695.702079580697 
-8.115267154603555e-09 8.839872441060055e-09 -2.787778160018961e-09 
12695.702079580697 -2.787778160018961e-09 1.3272338171311909e-08 
1.1504529904909125e-08 -2.6143561318215605e-09 12695.702079581843 
-2.6143561318215605e-09 1.7785832902173353e-08 6.889128512062132e-10 
12695.702079581843 6.889128512062132e-10 1.573386208144126e-08 
6.3569909719494045e-09 4.151516547193098e-11 12695.702079581113 
4.151516547193098e-11 -5.267135007054547e-09 -1.1535591736877454e-09 
12695.702079581113 -1.1535591736877454e-09 -5.508669093668075e-09 
9.179056163489443e-09 -1.8250384938156e-09 12695.702079580533 
-1.8250384938156e-09 1.3795928620194437e-09 -2.3943218411445413e-09 
12695.702079580533 -2.3943218411445413e-09 -5.606123857014975e-10 
-1.4595164687163084e-08 -5.387682615525611e-10 12695.702079577291 
-5.387682615525611e-10 -1.541062971513223e-08 -1.8085183173296058e-09 
12695.702079577291 -1.8085183173296058e-09 -1.2459647294129448e-08 
2.5822456139180987e-08 -6.432038805259458e-09 12695.70207957982 
-6.432038805259458e-09 1.5439913906920605e-08 3.1628768060866273e-09 
12695.70207957982 3.1628768060866273e-09 1.7282439915480836e-08 
-8.308918570483875e-09 -5.951011830176019e-09 12695.702079577433 
-5.951011830176019e-09 9.888633399723625e-10 1.1716568652115821e-09 
12695.702079577433 1.1716568652115821e-09 9.641841265594877e-10 
-8.471338369700267e-09 4.42838395593229e-09 12695.702079572608 
4.42838395593229e-09 -8.921965072438075e-09 -6.337100048965225e-10 
12695.702079572608 -6.337100048965225e-10 -5.932622426223119e-09 
-1.3997816919888537e-08 4.953592653648341e-09 12695.70207957648 
4.953592653648341e-09 -1.633870232895658e-08 2.8811078392010354e-09 
12695.70207957648 2.8811078392010354e-09 -5.265234987044992e-09 
2.535834060411427e-10 4.174517232789279e-09 12695.70207957756 
4.174517232789279e-09 3.976758446096662e-09 -1.5794617557153442e-10 
12695.70207957756 -1.5794617557153442e-10 1.1742409963918056e-08 
-2.623880109111665e-08 5.307508904682541e-09 12695.70207958082 
5.307508904682541e-09 -9.393232375023657e-09 -5.173053478700647e-09 
12695.70207958082 -5.173053478700647e-09 -8.336594493683025e-09 
-1.7464109551951803e-08 -1.0017647278065219e-08 12695.702079583016 
-1.0017647278065219e-08 -2.0433034880904633e-08 -1.2063356030925945e-09 
12695.702079583016 -1.2063356030925945e-09 -1.3942456919225767e-08 
1.5438365596585855e-08 -8.729617213873988e-09 12695.702079580235 
-8.729617213873988e-09 -6.492375215622993e-09 3.008535144532115e-10 
12695.702079580235 3.008535144532115e-10 8.081928386937107e-10 
-6.4529009296108935e-09 -2.9434609805460495e-09 12695.702079582994 
-2.9434609805460495e-09 -1.4427228176555872e-08 7.535977893104717e-10 
12695.702079582994 7.535977893104717e-10 -1.1017292392369394e-08 
1.813674755943591e-08 4.522687694664355e-09 12695.702079579372 
4.522687694664355e-09 1.660271321362401e-08 1.2886723599561956e-09 
12695.702079579372 1.2886723599561956e-09 1.5187307844444313e-08 
1.6106390784646046e-08 7.067963672930403e-09 12695.702079574608 
7.067963672930403e-09 1.3829886207910162e-08 1.6660155578426816e-09 
12695.702079574608 1.6660155578426816e-09 1.2331560447103866e-08 
-2.7279249371641525e-08 3.660135770695786e-09 12695.702079580475 
3.660135770695786e-09 -1.8278359287352233e-08 7.355409018089161e-10 
12695.702079580475 7.355409018089161e-10 -1.7618402527425918e-08 
-1.3423149042781273e-09 -1.1300430365027948e-09 12695.702079577046 
-1.1300430365027948e-09 -3.1411673365207716e-09 4.45227246069404e-09 
12695.702079577046 4.45227246069404e-09 2.2983335359900086e-10 
-5.522396428283666e-09 -5.366885480905323e-09 12695.702079577812 
-5.366885480905323e-09 -8.11927574766454e-09 7.3175044698688094e-09 
12695.702079577812 7.3175044698688094e-09 -4.418023023157832e-09 
-6.777510590070295e-09 -4.505345307629112e-09 12695.702079571289 
-4.505345307629112e-09 -5.429285475524778e-09 8.404357291534379e-09 
12695.702079571289 8.404357291534379e-09 -3.758940937018023e-09 
3.9164332822945283e-10 3.91239433454211e-09 12695.702079574345 
3.91239433454211e-09 -1.152918245623148e-09 1.0018117546195278e-08 
12695.702079574345 1.0018117546195278e-08 1.7254116178048735e-09 
-2.176940748198139e-08 3.4027200375212613e-09 12695.702079578778 
3.4027200375212613e-09 -2.8056749863060585e-08 -8.917611225232416e-10 
12695.702079578778 -8.917611225232416e-10 -2.701055423890991e-08 
-3.2219604644969743e-09 6.430659109051271e-09 12695.70207957389 
6.430659109051271e-09 -9.872956147245098e-09 -2.699517393341742e-09 
12695.70207957389 -2.699517393341742e-09 -1.0512951519237143e-08 
-1.4844110494489787e-08 2.089727541130722e-09 12695.702079580586 
2.089727541130722e-09 -2.139691162342455e-08 -8.43765765058556e-09 
12695.702079580586 -8.43765765058556e-09 -1.2540733140877124e-08 
-1.3321701085654138e-08 -2.2758808055711277e-09 12695.702079576846 
-2.2758808055711277e-09 -2.272975847064349e-08 -1.4888040851148836e-09 
12695.702079576846 -1.4888040851148836e-09 -1.5022605836102574e-08 
2.144595232643804e-08 -8.433114277597666e-09 12695.702079569888 
-8.433114277597666e-09 1.1966234039129089e-08 5.2499318607605e-09 
12695.702079569888 5.2499318607605e-09 1.0960953221246294e-08 
-6.515603287324656e-09 -5.895562158113026e-10 12695.702079575494 
-5.895562158113026e-10 4.103543810650829e-09 8.163362390569024e-09 
12695.702079575494 8.163362390569024e-09 2.4084535053936715e-09 
7.313874957731934e-09 3.416640116552394e-09 12695.70207957248 
3.416640116552394e-09 1.196194257958316e-08 1.3260260152870918e-08 
12695.70207957248 1.3260260152870918e-08 1.0947557175825697e-08 
-2.540972394924407e-08 5.7521813911202715e-09 12695.702079578658 
5.7521813911202715e-09 -2.586176532713585e-08 1.02449279005729e-09 
12695.702079578658 1.02449279005729e-09 -2.7561301285342627e-08 
-1.0623297769717266e-08 7.419898398783197e-09 12695.702079571598 
7.419898398783197e-09 -1.100867133952162e-08 -3.743076882406159e-09 
12695.702079571598 -3.743076882406159e-09 -1.2372676954810991e-08 
4.71304041155024e-08 4.823706535099193e-11 12695.702079570465 
4.823706535099193e-11 4.486550247612849e-08 5.874884395148622e-09 
12695.702079570465 5.874884395148622e-09 3.855416900198781e-08 
-7.193686854547609e-09 -8.50573061771568e-09 12695.702079583645 
-8.50573061771568e-09 1.3125722462531971e-08 -1.0323713196947841e-09 
12695.702079583645 -1.0323713196947841e-09 -2.807033055958921e-09 
-4.827812357384947e-09 -1.1015248832786408e-08 12695.702079575953 
-1.1015248832786408e-08 4.623433014934882e-09 -3.0644745015275545e-09 
12695.702079575953 -3.0644745015275545e-09 -4.88575923090823e-09 
-4.721093057057985e-09 -6.033281116463719e-09 12695.70207957747 
-6.033281116463719e-09 1.430642848345175e-08 -1.0899779833442452e-09 
12695.70207957747 -1.0899779833442452e-09 7.13874161242249e-09 
2.586151234132972e-08 2.2625777498094635e-09 12695.702079575825 
2.2625777498094635e-09 2.8304466646107305e-08 -1.4245862892270304e-10 
12695.702079575825 -1.4245862892270304e-10 2.2935731227472595e-08 
2.374772690924239e-09 1.535206059229188e-09 12695.702079574772 
1.535206059229188e-09 -9.154920131242692e-09 -2.3884492292363953e-09 
12695.702079574772 -2.3884492292363953e-09 -3.9821132944823945e-09 
1.8280463725543707e-08 5.6392241023023956e-09 12695.702079577188 
5.6392241023023956e-09 1.1871743910383768e-09 -4.9399574623352965e-09 
12695.702079577188 -4.9399574623352965e-09 8.773268221681365e-09 
-2.7702447714511363e-08 4.811768699303296e-10 12695.702079575214 
4.811768699303296e-10 -1.8425569079684695e-08 3.041363828094326e-09 
12695.702079575214 3.041363828094326e-09 -2.560871526635607e-08 
3.244763425732182e-09 -5.960017076735467e-09 12695.702079578718 
-5.960017076735467e-09 1.092040044374869e-08 3.0712415080134316e-09 
12695.702079578718 3.0712415080134316e-09 -3.160471211463854e-10 
2.7908391141348098e-09 3.1411208608307566e-09 12695.702079577768 
3.1411208608307566e-09 8.762733407366753e-09 -1.3121954025572815e-09 
12695.702079577768 -1.3121954025572815e-09 8.276371367155252e-09 
1.9710559431109023e-09 -1.823578052354245e-09 12695.702079584857 
-1.823578052354245e-09 5.329405123674205e-09 -4.0473156732352563e-10 
12695.702079584857 -4.0473156732352563e-10 5.377806299014042e-09 
-3.056183212906542e-08 -1.988070796925495e-09 -9513.626402851718 
-1.988070796925495e-09 -3.124275603923982e-08 4.65392582209367e-09 
-9513.626402851718 4.65392582209367e-09 -2.6049020024389517e-08 
4.471087634641259e-09 -3.4966276061622993e-09 -9513.626402854048 
-3.4966276061622993e-09 -8.923514295076274e-09 -9.843255169597533e-11 
-9513.626402854048 -9.843255169597533e-11 -2.3235625177837902e-09 
1.8082414598113862e-08 -1.062626093674256e-08 -9513.626402854243 
-1.062626093674256e-08 9.292561412532182e-09 1.657516194091323e-09 
-9513.626402854243 1.657516194091323e-09 9.690520205333576e-09 
-2.6820172573178507e-08 -4.280383851002939e-09 -9513.626402854718 
-4.280383851002939e-09 -2.578334085823043e-08 5.694562704100158e-09 
-9513.626402854718 5.694562704100158e-09 -2.5513999948005047e-08 
-2.016535304395846e-09 3.197249561132757e-10 -9513.626402855805 
3.197249561132757e-10 -6.840881255619176e-09 6.729140030506292e-09 
-9513.626402855805 6.729140030506292e-09 -4.719495992583457e-09 
2.3582479690718343e-09 1.8831514495632988e-09 -9513.626402856382 
1.8831514495632988e-09 9.965850970741004e-09 3.532119126395859e-09 
-9513.626402856382 3.532119126395859e-09 5.401977768961586e-09 
1.322780218918913e-08 -5.148726825820311e-09 -9513.626402860753 
-5.148726825820311e-09 2.0809633815272803e-08 1.5187462536241392e-09 
-9513.626402860753 1.5187462536241392e-09 1.5337786288827173e-08 
-1.466156268180076e-08 -1.1634391959796595e-08 -9513.62640286148 
-1.1634391959796595e-08 7.421627531732955e-10 2.353786756567643e-09 
-9513.62640286148 2.353786756567643e-09 -2.443331669057212e-09 
-7.141683823788233e-09 -1.5358193849953015e-10 -9513.626402859712 
-1.5358193849953015e-10 -4.1976761621272345e-09 3.2796206154873813e-09 
-9513.626402859712 3.2796206154873813e-09 -6.008801165340142e-09 
-6.162355367120467e-10 -1.1355042470361267e-08 -9513.62640285473 
-1.1355042470361267e-08 4.7220396791148785e-09 6.0893352994114e-09 
-9513.62640285473 6.0893352994114e-09 -6.143855619149488e-10 
1.008376638473646e-08 5.0762841093799434e-09 -9513.626402850861 
5.0762841093799434e-09 1.031590361379044e-08 6.159264304113043e-09 
-9513.626402850861 6.159264304113043e-09 3.998480060232463e-09 
4.206807628751609e-09 5.131707207650179e-09 -9513.626402850114 
5.131707207650179e-09 -2.9128843238470915e-10 1.1317584047566667e-09 
-9513.626402850114 1.1317584047566667e-09 -6.432957500498321e-09 
1.3135242732125052e-09 4.384819578711963e-09 -9513.626402850989 
4.384819578711963e-09 -8.178746732179268e-09 2.25670699021456e-09 
-9513.626402850989 2.25670699021456e-09 -7.649336353789257e-09 
1.524115692427328e-08 7.25055133695089e-10 -9513.626402850394 
7.25055133695089e-10 1.2524463735403647e-08 3.4711211512968305e-09 
-9513.626402850394 3.4711211512968305e-09 9.049750956160253e-09 
-1.2165478149509753e-08 6.928934128604307e-09 -9513.62640285084 
6.928934128604307e-09 -2.519059358543362e-09 4.8769111493957746e-09 
-9513.62640285084 4.8769111493957746e-09 -6.7844090175855515e-09 
7.088109550999682e-09 6.058749236566237e-09 -9513.626402854525 
6.058749236566237e-09 8.861395769815292e-09 1.5757445144741235e-10 
-9513.626402854525 1.5757445144741235e-10 7.800947839367595e-09 
-2.8492860208533252e-08 -7.205423088498237e-09 -9513.626402857177 
-7.205423088498237e-09 -2.2479542541612844e-08 6.582734635167417e-10 
-9513.626402857177 6.582734635167417e-10 -1.5368547457535965e-08 
-3.05830734866964e-09 -4.8511637942835235e-09 -9513.6264028511 
-4.8511637942835235e-09 -7.497456996302972e-09 5.7009808258782286e-09 
-9513.6264028511 5.7009808258782286e-09 3.0431426525073543e-09 
-9.940500284755677e-09 5.9732764002421195e-09 -9513.626402848342 
5.9732764002421195e-09 -7.768175700365416e-09 -5.654356249101106e-10 
-9513.626402848342 -5.654356249101106e-10 -4.957581348236625e-09 
2.035579292946484e-09 -5.525435636693841e-09 -9513.626402852244 
-5.525435636693841e-09 4.2961186266840895e-09 -4.589562591049332e-09 
-9513.626402852244 -4.589562591049332e-09 1.6120482864936108e-09 
-9.257255347232473e-09 1.0859479183296205e-08 -9513.62640285014 
1.0859479183296205e-08 -1.7724148243229105e-08 2.560898031909769e-09 
-9513.62640285014 2.560898031909769e-09 -1.8560228024503745e-08 
-7.840112658276296e-09 1.296772308234865e-09 -9513.626402856518 
1.296772308234865e-09 -1.660668188869e-08 4.239859382321007e-10 
-9513.626402856518 4.239859382321007e-10 -2.6903375456302287e-08 
1.0802096591291622e-08 4.753436115951551e-09 -9513.626402864222 
4.753436115951551e-09 2.9036780632578877e-09 1.7155685797930332e-09 
-9513.626402864222 1.7155685797930332e-09 -1.4430266305533286e-09 
-6.5158381284857676e-09 3.841078082406239e-09 -9513.626402857184 
3.841078082406239e-09 -6.861715406881391e-09 5.442959340173143e-09 
-9513.626402857184 5.442959340173143e-09 -4.0604796630849264e-09 
-1.5936135075742362e-09 7.39431494500088e-09 -9513.626402857539 
7.39431494500088e-09 1.367133607115928e-09 1.9694367687962074e-09 
-9513.626402857539 1.9694367687962074e-09 1.6592710848714416e-09 
-5.043224133860421e-10 9.849542218772197e-09 -9513.626402857286 
9.849542218772197e-09 3.5079092374310037e-09 -2.0940296542107045e-09 
-9513.626402857286 -2.0940296542107045e-09 6.822431331582744e-09 
-1.2417223673579566e-08 -2.449354003737303e-10 -9513.626402859827 
-2.449354003737303e-10 -1.1681888393190782e-09 3.242794419601318e-10 
-9513.626402859827 3.242794419601318e-10 1.949863264114311e-09 
1.5266592368059274e-08 -1.1767299755916193e-09 -9513.62640285582 
-1.1767299755916193e-09 2.175918367690546e-08 1.7587478827582249e-09 
-9513.62640285582 1.7587478827582249e-09 2.3593510541913583e-08 
-6.175231800939775e-09 5.951811466106802e-10 -9513.626402849293 
5.951811466106802e-10 -8.425700533954562e-09 2.9994247075756454e-09 
-9513.626402849293 2.9994247075756454e-09 -5.289879998465112e-09 
-7.061078758249006e-09 4.607726502251033e-09 -9513.626402854201 
4.607726502251033e-09 -1.1416490397185292e-08 4.214428356694883e-09 
-9513.626402854201 4.214428356694883e-09 -1.0848699240505304e-08 
7.045059674868289e-09 -5.675630167868687e-10 -9513.626402851547 
-5.675630167868687e-10 1.4301916520548082e-08 1.0449398458931365e-10 
-9513.626402851547 1.0449398458931365e-10 9.405306659352144e-09 
3.6923525331273634e-10 -1.1862442881253496e-08 -9513.62640284741 
-1.1862442881253496e-08 -3.084199815130593e-10 -4.8066523455691885e-09 
-9513.62640284741 -4.8066523455691885e-09 -5.3478231940293285e-09 
2.4316773041943774e-08 -1.0331141015000587e-08 -9513.62640285228 
-1.0331141015000587e-08 1.7693390642903682e-08 1.799935457018998e-09 
-9513.62640285228 1.799935457018998e-09 7.79268559331911e-09 
-7.283932035416537e-09 -1.4678461086233775e-08 -9513.626402851189 
-1.4678461086233775e-08 -3.1409613448433328e-09 1.8966821338420268e-09 
-9513.626402851189 1.8966821338420268e-09 -9.036846451355483e-09 
-6.201137000106042e-09 -4.201366964824833e-09 -9513.626402856087 
-4.201366964824833e-09 -1.790219523601909e-08 1.286734750203723e-09 
-9513.626402856087 1.286734750203723e-09 -7.710512384546862e-09 
9.080759803849321e-10 2.1545704535497408e-10 -9513.626402857532 
2.1545704535497408e-10 -1.2989940635386807e-08 2.0316173335285117e-09 
-9513.626402857532 2.0316173335285117e-09 1.7211383467889043e-09 
-1.085395883723631e-08 -2.1890874836559483e-09 -9513.626402860804 
-2.1890874836559483e-09 -1.2297711893043459e-08 -1.7932917825828251e-09 
-9513.626402860804 -1.7932917825828251e-09 6.833685212021597e-10 
-1.9018759311423395e-08 -1.7953857207947344e-09 -9513.626402858112 
-1.7953857207947344e-09 -5.450000161913024e-09 -3.0353640022560232e-09 
-9513.626402858112 -3.0353640022560232e-09 2.0020593296879595e-09 
-4.472520177421216e-09 -9.007077426549492e-09 -9513.626402849864 
-9.007077426549492e-09 7.872835549529239e-11 -3.5135410535133464e-09 
-9513.626402849864 -3.5135410535133464e-09 3.1641146878148247e-09 
-2.107469983319518e-09 -9.81459185903881e-09 -9513.626402849733 
-9.81459185903881e-09 -7.747930606108984e-09 1.5341006316586673e-09 
-9513.626402849733 1.5341006316586673e-09 -3.7210319684440127e-09 
1.5798199005999883e-08 4.741236872666351e-09 -9513.626402845126 
4.741236872666351e-09 2.1275797397954643e-08 1.4869309395900052e-09 
-9513.626402845126 1.4869309395900052e-09 1.7863698612521563e-08 
-3.0549240108952447e-09 -2.0053564623862144e-09 -9513.626402842707 
-2.0053564623862144e-09 6.896710401298198e-09 1.5819558110509577e-09 
-9513.626402842707 1.5819558110509577e-09 1.1028589390695598e-09 
7.712316066813993e-09 1.174763958675795e-10 -9513.626402847529 
1.174763958675795e-10 -5.509995285744878e-10 -2.057371027687542e-09 
-9513.626402847529 -2.057371027687542e-09 -3.804482728058657e-09 
3.649462254591876e-09 -2.732366543317887e-09 -9513.626402848155 
-2.732366543317887e-09 -5.860736445344735e-09 1.46068885547237e-09 
-9513.626402848155 1.46068885547237e-09 -9.618898715661064e-09 
5.088506456798022e-09 6.625989917818644e-10 -9513.626402850252 
6.625989917818644e-10 9.185795522527492e-10 5.3632037802860115e-09 
-9513.626402850252 5.3632037802860115e-09 -4.368119258640533e-09 
-2.8620528898738813e-10 2.698025063383998e-09 -9513.626402853137 
2.698025063383998e-09 -1.0731837959373012e-08 8.139363355030384e-10 
-9513.626402853137 8.139363355030384e-10 1.925273986567239e-09 
7.3564675581487506e-09 -5.507972302979196e-09 -9513.6264028534 
-5.507972302979196e-09 7.4183546248329426e-09 -1.4472710211835076e-09 
-9513.6264028534 -1.4472710211835076e-09 1.9942430204783618e-08 
-6.710948689002416e-09 -6.269403197132514e-09 -9513.626402854585 
-6.269403197132514e-09 -9.297458360879168e-10 -2.299878820595106e-09 
-9513.626402854585 -2.299878820595106e-09 6.791209289464852e-09 
-1.9157669840972382e-08 -4.316000035315205e-09 -9513.62640285186 
-4.316000035315205e-09 -1.2992843673662745e-08 -3.3956077240919376e-10 
-9513.62640285186 -3.3956077240919376e-10 -3.0363873141254007e-09 
5.106954143100219e-09 6.407006020210389e-09 -9513.62640284875 
6.407006020210389e-09 1.2325514618201945e-09 3.0406454215447814e-09 
-9513.62640284875 3.0406454215447814e-09 8.76711818361102e-09 
-6.576692801673386e-09 1.708665592589299e-09 -9513.626402847527 
1.708665592589299e-09 4.734096397228909e-09 -5.612253818485668e-09 
-9513.626402847527 -5.612253818485668e-09 -1.5436717330957015e-09 
-1.3837317425210591e-08 -1.2648155840984197e-09 -9513.626402853919 
-1.2648155840984197e-09 -1.2540140902179469e-08 -4.229370391949211e-09 
-9513.626402853919 -4.229370391949211e-09 -1.242068050674735e-08 
1.6355818041726252e-08 -1.8071033832458897e-09 -9513.626402853997 
-1.8071033832458897e-09 5.324817456162542e-09 -2.03864593891305e-09 
-9513.626402853997 -2.03864593891305e-09 5.115640530405664e-09 
-2.9413130774375158e-09 3.9886214725063125e-09 -9513.626402853768 
3.9886214725063125e-09 -1.282775636676787e-08 -9.50088589751789e-10 
-9513.626402853768 -9.50088589751789e-10 -1.3285097605296892e-08 
2.493302508463668e-09 -1.9345217323609105e-09 -9513.626402850903 
-1.9345217323609105e-09 2.4754550816963014e-11 -1.8219655193430856e-09 
-9513.626402850903 -1.8219655193430856e-09 -7.633927246400098e-09 
-1.5085421119681525e-08 -1.3332613910205519e-09 -9513.626402849612 
-1.3332613910205519e-09 -7.734876757333048e-09 4.384344871303965e-09 
-9513.626402849612 4.384344871303965e-09 -9.355457607743443e-09 
-1.8155972980726747e-08 3.112855777298758e-09 -9513.626402849459 
3.112855777298758e-09 -2.3862412360878666e-08 3.880572336940843e-09 
-9513.626402849459 3.880572336940843e-09 -1.1125997611962192e-08 
3.194222502672869e-09 -2.372291601546093e-09 -9513.626402853903 
-2.372291601546093e-09 3.3642097065145223e-10 -3.397471814693767e-09 
-9513.626402853903 -3.397471814693767e-09 6.053822662864978e-09 
-7.973292887177458e-09 -7.332982169926384e-09 -9513.62640285107 
-7.332982169926384e-09 5.09179894002044e-09 -2.1297987561176572e-09 
-9513.62640285107 -2.1297987561176572e-09 6.240293914282356e-10 
4.531950485896725e-09 -9.005425525605252e-09 -9513.626402854363 
-9.005425525605252e-09 3.370291684570434e-09 5.5744632996648045e-09 
-9513.626402854363 5.5744632996648045e-09 1.8998514642205634e-09 
-2.0960237580492007e-08 -6.521331749479137e-09 -9513.626402853683 
-6.521331749479137e-09 -1.529463985298251e-08 -3.1072553948822485e-09 
-9513.626402853683 -3.1072553948822485e-09 -1.566791590085282e-08 
-8.926236095959023e-09 3.090207335013268e-09 -9513.626402859605 
3.090207335013268e-09 -1.4662592246469142e-08 -3.3644924563757318e-09 
-9513.626402859605 -3.3644924563757318e-09 -6.264437960790731e-09 
1.3575906365774711e-08 -2.863595306094257e-09 -9513.62640285421 
-2.863595306094257e-09 -3.234595039070138e-10 -4.1950331859886295e-09 
-9513.62640285421 -4.1950331859886295e-09 2.6908575264437284e-09 
-1.567610950642319e-08 1.022465950450344e-09 -9513.62640286004 
1.022465950450344e-09 -2.200225437899225e-08 -3.0416359897939373e-09 
-9513.62640286004 -3.0416359897939373e-09 -2.0608775807772775e-08 
1.003002523394979e-08 6.819217362257938e-09 -9513.626402855461 
6.819217362257938e-09 9.766096191740655e-10 -3.0972339081313352e-09 
-9513.626402855461 -3.0972339081313352e-09 2.6263056777514948e-09 
-9.886999639718359e-10 4.22321294822524e-09 -9513.626402857268 
4.22321294822524e-09 5.1719768689743156e-09 -5.753119759421039e-10 
-9513.626402857268 -5.753119759421039e-10 6.62614396893755e-10 
-5.576614048751379e-09 4.71720262919609e-09 -9513.626402854188 
4.71720262919609e-09 5.652619977498986e-09 -2.6347235058100902e-09 
-9513.626402854188 -2.6347235058100902e-09 7.130193374166381e-09 
-3.1845679898785565e-09 2.9733578699521674e-09 -9513.62640285353 
2.9733578699521674e-09 -2.8881371946452693e-09 -2.496444874673096e-09 
-9513.62640285353 -2.496444874673096e-09 4.176731409465471e-09 
1.823208604101887e-09 4.562894280497462e-10 -9513.626402852584 
4.562894280497462e-10 1.0227086297733417e-09 5.747797145024139e-10 
-9513.626402852584 5.747797145024139e-10 2.5927230373176535e-09 
-8.508178598664326e-09 1.6617302940202356e-09 -9513.626402849683 
1.6617302940202356e-09 1.5230226063679676e-09 3.19077838489625e-11 
-9513.626402849683 3.19077838489625e-11 -3.311929443079284e-09 
-1.5940487726848378e-08 -7.244413882981993e-09 -9513.62640284928 
-7.244413882981993e-09 -1.1066547172079773e-08 -3.792279211410018e-09 
-9513.62640284928 -3.792279211410018e-09 -1.4694898740814337e-08 
9.186802075779797e-09 -4.173009637555974e-09 -9513.626402857386 
-4.173009637555974e-09 5.11346291475852e-09 5.233477007374916e-10 
-9513.626402857386 5.233477007374916e-10 2.4807965825806373e-09 
7.228707345035765e-09 -3.234334981685376e-10 -9513.626402856255 
-3.234334981685376e-10 -4.527240856860237e-09 -9.506306917457742e-10 
-9513.626402856255 -9.506306917457742e-10 -2.959009950453467e-09 
1.3883485937506762e-09 6.3412576818111724e-09 -9513.626402856617 
6.3412576818111724e-09 -1.4987297920149615e-10 -5.28159705607753e-09 
-9513.626402856617 -5.28159705607753e-09 -5.448033534933006e-09 
4.609551843529761e-09 3.174927989943652e-09 -9513.62640285799 
3.174927989943652e-09 1.1783848473928327e-09 -6.042932135010728e-09 
-9513.62640285799 -6.042932135010728e-09 5.419380380157702e-09 
-1.915779247216853e-08 -6.161113786322013e-09 -9513.626402856275 
-6.161113786322013e-09 -2.371269900504446e-08 -2.1037475154161815e-09 
-9513.626402856275 -2.1037475154161815e-09 -7.913250618708906e-09 
-2.366354887332164e-09 -8.227796170985861e-10 -9513.626402851703 
-8.227796170985861e-10 2.3325489321816448e-09 4.974765646330947e-09 
-9513.626402851703 4.974765646330947e-09 8.296666847435307e-09 
2.5631416547051704e-09 -1.915093122476631e-09 -9513.62640285178 
-1.915093122476631e-09 3.90272260199997e-09 4.424500565730217e-09 
-9513.62640285178 4.424500565730217e-09 6.23254427512584e-09 
-3.6691656622218338e-09 -2.5030055551027095e-11 -9513.62640285112 
-2.5030055551027095e-11 -8.719495704475237e-09 1.8695053995774107e-09 
-9513.62640285112 1.8695053995774107e-09 -3.0914192014202606e-09 
1.521318844698667e-08 -3.0245777681143534e-09 -9513.62640284756 
-3.0245777681143534e-09 2.091165677244651e-08 -1.8871257902815267e-09 
-9513.62640284756 -1.8871257902815267e-09 1.6318281201715084e-08 
-8.538558523842834e-09 8.429130366023014e-11 -9513.626402851325 
8.429130366023014e-11 -5.350538081551399e-09 8.702813049488391e-10 
-9513.626402851325 8.702813049488391e-10 -5.916710482861831e-09 
3.6203226361630515e-09 -1.69248334057742e-09 -9513.62640285297 
-1.69248334057742e-09 -1.0710614017404747e-09 5.236608534818629e-10 
-9513.62640285297 5.236608534818629e-10 -5.435534062500664e-10 
-5.962097913067727e-09 -5.062599446350317e-09 -9513.626402854472 
-5.062599446350317e-09 -1.2992682565407152e-08 -1.071929554508133e-10 
-9513.626402854472 -1.071929554508133e-10 -1.1486200861858076e-08 
-1.5096718020090128e-08 -1.1419928873414888e-09 -9513.626402851394 
-1.1419928873414888e-09 -2.2225462931205884e-08 -6.1355932158139435e-09 
-9513.626402851394 -6.1355932158139435e-09 -1.9122045277258777e-08 
-2.0607075384598176e-09 -3.3151172966676102e-09 -9513.626402853062 
-3.3151172966676102e-09 -8.635440326538104e-09 -5.063531324415919e-09 
-9513.626402853062 -5.063531324415919e-09 -1.8092706398521194e-09 
-1.0638878849679458e-08 7.73809022707766e-09 -9513.626402850861 
7.73809022707766e-09 -2.5106383447085916e-09 1.5309403429516002e-09 
-9513.626402850861 1.5309403429516002e-09 -4.5225966637502695e-09 
1.025384753369726e-08 8.81654392976613e-09 -9513.626402852942 
8.81654392976613e-09 8.375994886919345e-09 -8.544104047695136e-10 
-9513.626402852942 -8.544104047695136e-10 5.8745966397290085e-09 
-2.3400306177629207e-09 -1.5165042108413066e-09 -9513.626402851516 
-1.5165042108413066e-09 -6.835491197884051e-09 2.0673251616204887e-09 
-9513.626402851516 2.0673251616204887e-09 -6.743060345976446e-10 
-2.096146683636817e-08 6.861585688711801e-09 -9513.626402847622 
6.861585688711801e-09 -1.152585733323647e-08 2.1872643687085324e-09 
-9513.626402847622 2.1872643687085324e-09 -1.2219355512765891e-08 
3.214329081498543e-08 3.0195336523487584e-09 -9513.626402849632 
3.0195336523487584e-09 2.112712861668699e-08 -3.372122759747724e-09 
-9513.626402849632 -3.372122759747724e-09 2.098864256816508e-08 
-1.387659648873177e-08 1.122535151289274e-09 -9513.62640285746 
1.122535151289274e-09 -3.4147957201674133e-09 -7.037156039538099e-11 
-9513.62640285746 -7.037156039538099e-11 -6.0466524162134716e-09 
1.9087337477024503e-10 -2.2876674378488287e-09 -9513.626402851462 
-2.2876674378488287e-09 2.372602735746516e-09 4.263382972255068e-09 
-9513.626402851462 4.263382972255068e-09 3.205582927022859e-09 
-2.091170162408782e-08 -9.944930319617467e-10 -9513.626402849195 
-9.944930319617467e-10 -2.6806561336282243e-09 2.7420080554547005e-10 
-9513.626402849195 2.7420080554547005e-10 -9.325784171369602e-09 
1.7716488421314246e-08 1.051510635274165e-10 -9513.626402848944 
1.051510635274165e-10 1.6273909122616478e-08 -6.109942236155034e-09 
-9513.626402848944 -6.109942236155034e-09 1.2650505528281667e-08 
1.2691897887660106e-08 2.28454908936829e-09 -9513.626402848127 
2.28454908936829e-09 5.3288191784603645e-09 -4.014258311438791e-09 
-9513.626402848127 -4.014258311438791e-09 6.174059070933899e-09 
-8.076921389769627e-09 4.780822063677791e-09 -9513.62640285193 
4.780822063677791e-09 -9.307260652391013e-09 -5.027141739187327e-10 
-9513.62640285193 -5.027141739187327e-10 -1.2138973812393806e-08 
6.301220538619731e-09 2.5256027756302447e-09 -9513.626402859201 
2.5256027756302447e-09 7.943163728998313e-09 -1.7649693753897125e-09 
-9513.626402859201 -1.7649693753897125e-09 4.661337399408802e-09 
2.5458447181277672e-08 -6.300218571341949e-09 -9513.62640285277 
-6.300218571341949e-09 2.721375477150019e-08 3.7080469078239764e-09 
-9513.62640285277 3.7080469078239764e-09 2.521354060862617e-08 
-9.935847567189279e-09 1.076535272566834e-08 -9513.626402849202 
1.076535272566834e-08 -3.9599107723225905e-09 6.574288086258858e-09 
-9513.626402849202 6.574288086258858e-09 -4.941674666704509e-09 
1.7346980217265923e-08 -1.4299871320985417e-09 -9513.62640285295 
-1.4299871320985417e-09 8.839051469100052e-09 -5.055280982198907e-10 
-9513.62640285295 -5.055280982198907e-10 1.038157395987364e-08 
